Nb Pd                                   
   1.00000000000000     
     8.5272877203063207    0.0000000000000000   -0.0000000000000005
     1.3410569222288782    8.4211758202895268   -0.0000000000000005
     0.0000000000000000    0.0000000000000048   39.4404615568839816
   Nb   Pd
    36    18
Selective dynamics
Direct
  0.2500000000000000  0.0833333333333357  0.5850606366666682   F   F   F
  0.0833333333333357  0.2500000000000000  0.5272020100000034   F   F   F
  0.0833333333333357  0.2500000000000000  0.4183939699999968   F   F   F
  0.2500000000000000  0.0833333333333357  0.3605353433333320   F   F   F
  0.0832895407384626  0.2499918502942435  0.6365715525309383   T   T   T
  0.2500000000000000  0.0833333333333357  0.4727979899999966   F   F   F
  0.2500000000000000  0.4166666666666643  0.5850606366666682   F   F   F
  0.0833333333333357  0.5833333333333357  0.5272020100000034   F   F   F
  0.0833333333333357  0.5833333333333357  0.4183939699999968   F   F   F
  0.2500000000000000  0.4166666666666643  0.3605353433333320   F   F   F
  0.0832733796366014  0.5833309117681154  0.6365651435056279   T   T   T
  0.2500000000000000  0.4166666666666643  0.4727979899999966   F   F   F
  0.2500000000000000  0.7500000000000000  0.5850606366666682   F   F   F
  0.0833333333333357  0.9166666666666643  0.5272020100000034   F   F   F
  0.0833333333333357  0.9166666666666643  0.4183939699999968   F   F   F
  0.2500000000000000  0.7500000000000000  0.3605353433333320   F   F   F
  0.0833107902457684  0.9166400301344382  0.6365401956635282   T   T   T
  0.2500000000000000  0.7500000000000000  0.4727979899999966   F   F   F
  0.5833333333333357  0.0833333333333357  0.5850606366666682   F   F   F
  0.4166666666666643  0.2500000000000000  0.5272020100000034   F   F   F
  0.4166666666666643  0.2500000000000000  0.4183939699999968   F   F   F
  0.5833333333333357  0.0833333333333357  0.3605353433333320   F   F   F
  0.4167572716938395  0.2499896957922942  0.6365665280052752   T   T   T
  0.5833333333333357  0.0833333333333357  0.4727979899999966   F   F   F
  0.5833333333333357  0.4166666666666643  0.5850606366666682   F   F   F
  0.4166666666666643  0.5833333333333357  0.5272020100000034   F   F   F
  0.4166666666666643  0.5833333333333357  0.4183939699999968   F   F   F
  0.5833333333333357  0.4166666666666643  0.3605353433333320   F   F   F
  0.4166885365948190  0.5833247787660554  0.6365585226210726   T   T   T
  0.5833333333333357  0.4166666666666643  0.4727979899999966   F   F   F
  0.5833333333333357  0.7500000000000000  0.5850606366666682   F   F   F
  0.4166666666666643  0.9166666666666643  0.5272020100000034   F   F   F
  0.4166666666666643  0.9166666666666643  0.4183939699999968   F   F   F
  0.5833333333333357  0.7500000000000000  0.3605353433333320   F   F   F
  0.4167504169411771  0.9166624006007851  0.6365417080532367   T   T   T
  0.5833333333333357  0.7500000000000000  0.4727979899999966   F   F   F
  0.9166666666666643  0.0833333333333357  0.5850606366666682   F   F   F
  0.7500000000000000  0.2500000000000000  0.5272020100000034   F   F   F
  0.7500000000000000  0.2500000000000000  0.4183939699999968   F   F   F
  0.9166666666666643  0.0833333333333357  0.3605353433333320   F   F   F
  0.7499958263288420  0.2500156771228674  0.6365643038610855   T   T   T
  0.9166666666666643  0.0833333333333357  0.4727979899999966   F   F   F
  0.9166666666666643  0.4166666666666643  0.5850606366666682   F   F   F
  0.7500000000000000  0.5833333333333357  0.5272020100000034   F   F   F
  0.7500000000000000  0.5833333333333357  0.4183939699999968   F   F   F
  0.9166666666666643  0.4166666666666643  0.3605353433333320   F   F   F
  0.7500577878485402  0.5833601155638704  0.6365561106796775   T   T   T
  0.9166666666666643  0.4166666666666643  0.4727979899999966   F   F   F
  0.9166666666666643  0.7500000000000000  0.5850606366666682   F   F   F
  0.7500000000000000  0.9166666666666643  0.5272020100000034   F   F   F
  0.7500000000000000  0.9166666666666643  0.4183939699999968   F   F   F
  0.9166666666666643  0.7500000000000000  0.3605353433333320   F   F   F
  0.7499839415755289  0.9166565191645617  0.6365405387895393   T   T   T
  0.9166666666666643  0.7500000000000000  0.4727979899999966   F   F   F
 
  0.00000000E+00  0.00000000E+00  0.00000000E+00
  0.00000000E+00  0.00000000E+00  0.00000000E+00
  0.00000000E+00  0.00000000E+00  0.00000000E+00
  0.00000000E+00  0.00000000E+00  0.00000000E+00
  0.00000000E+00  0.00000000E+00  0.00000000E+00
  0.00000000E+00  0.00000000E+00  0.00000000E+00
  0.00000000E+00  0.00000000E+00  0.00000000E+00
  0.00000000E+00  0.00000000E+00  0.00000000E+00
  0.00000000E+00  0.00000000E+00  0.00000000E+00
  0.00000000E+00  0.00000000E+00  0.00000000E+00
  0.00000000E+00  0.00000000E+00  0.00000000E+00
  0.00000000E+00  0.00000000E+00  0.00000000E+00
  0.00000000E+00  0.00000000E+00  0.00000000E+00
  0.00000000E+00  0.00000000E+00  0.00000000E+00
  0.00000000E+00  0.00000000E+00  0.00000000E+00
  0.00000000E+00  0.00000000E+00  0.00000000E+00
  0.00000000E+00  0.00000000E+00  0.00000000E+00
  0.00000000E+00  0.00000000E+00  0.00000000E+00
  0.00000000E+00  0.00000000E+00  0.00000000E+00
  0.00000000E+00  0.00000000E+00  0.00000000E+00
  0.00000000E+00  0.00000000E+00  0.00000000E+00
  0.00000000E+00  0.00000000E+00  0.00000000E+00
  0.00000000E+00  0.00000000E+00  0.00000000E+00
  0.00000000E+00  0.00000000E+00  0.00000000E+00
  0.00000000E+00  0.00000000E+00  0.00000000E+00
  0.00000000E+00  0.00000000E+00  0.00000000E+00
  0.00000000E+00  0.00000000E+00  0.00000000E+00
  0.00000000E+00  0.00000000E+00  0.00000000E+00
  0.00000000E+00  0.00000000E+00  0.00000000E+00
  0.00000000E+00  0.00000000E+00  0.00000000E+00
  0.00000000E+00  0.00000000E+00  0.00000000E+00
  0.00000000E+00  0.00000000E+00  0.00000000E+00
  0.00000000E+00  0.00000000E+00  0.00000000E+00
  0.00000000E+00  0.00000000E+00  0.00000000E+00
  0.00000000E+00  0.00000000E+00  0.00000000E+00
  0.00000000E+00  0.00000000E+00  0.00000000E+00
  0.00000000E+00  0.00000000E+00  0.00000000E+00
  0.00000000E+00  0.00000000E+00  0.00000000E+00
  0.00000000E+00  0.00000000E+00  0.00000000E+00
  0.00000000E+00  0.00000000E+00  0.00000000E+00
  0.00000000E+00  0.00000000E+00  0.00000000E+00
  0.00000000E+00  0.00000000E+00  0.00000000E+00
  0.00000000E+00  0.00000000E+00  0.00000000E+00
  0.00000000E+00  0.00000000E+00  0.00000000E+00
  0.00000000E+00  0.00000000E+00  0.00000000E+00
  0.00000000E+00  0.00000000E+00  0.00000000E+00
  0.00000000E+00  0.00000000E+00  0.00000000E+00
  0.00000000E+00  0.00000000E+00  0.00000000E+00
  0.00000000E+00  0.00000000E+00  0.00000000E+00
  0.00000000E+00  0.00000000E+00  0.00000000E+00
  0.00000000E+00  0.00000000E+00  0.00000000E+00
  0.00000000E+00  0.00000000E+00  0.00000000E+00
  0.00000000E+00  0.00000000E+00  0.00000000E+00
  0.00000000E+00  0.00000000E+00  0.00000000E+00
