Nb Pd
 1.0000000000000000
     8.5272877203063207   -0.0000000000000000   -0.0000000000000005
     1.3410569222288782    8.4211758202895268   -0.0000000000000005
    -0.0000000000000000    0.0000000000000048   39.4404615568839816
Nb Pd
36 18
Selective dynamics
Cartesian
  2.2435766735956530  0.7017646516907970 23.0750615488977395   F   F   F
  1.0458715405827463  2.1052939550723848 20.7930906081169660   F   F   F
  1.0458715405827463  2.1052939550723844 16.5016512894170724   F   F   F
  2.2435766735956530  0.7017646516907958 14.2196803486362970   F   F   F
  1.0454871793069545  2.1052253249673512 25.1066758458025667   T   T   T
  2.2435766735956530  0.7017646516907964 18.6473709487670192   F   F   F
  2.6905956476719459  3.5088232584539729 23.0750615488977395   F   F   F
  1.4928905146590390  4.9123525618355606 20.7930906081169660   F   F   F
  1.4928905146590390  4.9123525618355597 16.5016512894170724   F   F   F
  2.6905956476719459  3.5088232584539716 14.2196803486362970   F   F   F
  1.4923760247803424  4.9123321694091109 25.1064230708859775   T   T   T
  2.6905956476719459  3.5088232584539720 18.6473709487670192   F   F   F
  3.1376146217482384  6.3158818652171487 23.0750615488977395   F   F   F
  1.9399094887353319  7.7194111685987359 20.7930906081169660   F   F   F
  1.9399094887353319  7.7194111685987359 16.5016512894170724   F   F   F
  3.1376146217482384  6.3158818652171469 14.2196803486362970   F   F   F
  1.9396815362356326  7.7191868576776237 25.1054391164787027   T   T   T
  3.1376146217482384  6.3158818652171478 18.6473709487670192   F   F   F
  5.0860059136977593  0.7017646516907970 23.0750615488977395   F   F   F
  3.8883007806848529  2.1052939550723848 20.7930906081169660   F   F   F
  3.8883007806848529  2.1052939550723844 16.5016512894170724   F   F   F
  5.0860059136977593  0.7017646516907958 14.2196803486362970   F   F   F
  3.8890595772913858  2.1052071815275766 25.1064776761911723   T   T   T
  5.0860059136977593  0.7017646516907964 18.6473709487670192   F   F   F
  5.5330248877740527  3.5088232584539729 23.0750615488977395   F   F   F
  4.3353197547611462  4.9123525618355606 20.7930906081169660   F   F   F
  4.3353197547611462  4.9123525618355597 16.5016512894170724   F   F   F
  5.5330248877740527  3.5088232584539716 14.2196803486362970   F   F   F
  4.3354947737692573  4.9122805223204713 25.1061619401432488   T   T   T
  5.5330248877740527  3.5088232584539720 18.6473709487670192   F   F   F
  5.9800438618503451  6.3158818652171487 23.0750615488977395   F   F   F
  4.7823387288374386  7.7194111685987359 20.7930906081169660   F   F   F
  4.7823387288374386  7.7194111685987359 16.5016512894170724   F   F   F
  5.9800438618503451  6.3158818652171469 14.2196803486362970   F   F   F
  4.7830471704876425  7.7193752433079048 25.1054987658269617   T   T   T
  5.9800438618503451  6.3158818652171478 18.6473709487670192   F   F   F
  7.9284351537998665  0.7017646516907970 23.0750615488977395   F   F   F
  6.7307300207869600  2.1052939550723848 20.7930906081169660   F   F   F
  6.7307300207869600  2.1052939550723844 16.5016512894170724   F   F   F
  7.9284351537998665  0.7017646516907958 14.2196803486362970   F   F   F
  6.7307154546063073  2.1054259748803914 25.1063899549178693   T   T   T
  7.9284351537998665  0.7017646516907964 18.6473709487670192   F   F   F
  8.3754541278761589  3.5088232584539729 23.0750615488977395   F   F   F
  7.1777489948632525  4.9123525618355606 20.7930906081169660   F   F   F
  7.1777489948632525  4.9123525618355597 16.5016512894170724   F   F   F
  8.3754541278761589  3.5088232584539716 14.2196803486362970   F   F   F
  7.1782776849701282  4.9125780997077717 25.1060668120615098   T   T   T
  8.3754541278761589  3.5088232584539720 18.6473709487670192   F   F   F
  8.8224731019524523  6.3158818652171487 23.0750615488977395   F   F   F
  7.6247679689395458  7.7194111685987359 20.7930906081169660   F   F   F
  7.6247679689395458  7.7194111685987359 16.5016512894170724   F   F   F
  8.8224731019524523  6.3158818652171469 14.2196803486362970   F   F   F
  7.6246174257558099  7.7193257146993624 25.1054526495270345   T   T   T
  8.8224731019524523  6.3158818652171478 18.6473709487670192   F   F   F
