Pd S                                    
   1.00000000000000     
     9.2679441447573971    0.0000000000000000   -0.5736973883365687
    -0.0000000000000008   12.8254646200000000    0.0000000000000008
     0.0000000000000000    0.0000000000000000   35.3941756256364854
   Pd   S 
    48    16
Selective dynamics
Direct
  0.0601265700000013  0.1250000000000000  0.4186012449999978   F   F   F
  0.4351265700000013  0.1250000000000000  0.5436012449999978   F   F   F
  0.0502895786235769  0.1250072153535697  0.6163897992045122   T   T   T
  0.1797230262500022  0.1250000000000000  0.4946819537500033   F   F   F
  0.3125000000000000  0.0000000000000000  0.4375000000000000   F   F   F
  0.1894247161516418  0.9991884314162363  0.5623156693648852   T   T   T
  0.3125000000000000  0.2500000000000000  0.4375000000000000   F   F   F
  0.1894662763265771  0.2508203865649534  0.5623119779711061   T   T   T
  0.4452769737499978  0.3750000000000000  0.3803180462499967   F   F   F
  0.3202769737499978  0.3750000000000000  0.5053180462499967   F   F   F
  0.4430544085623609  0.3749624267784455  0.5790974792295245   T   T   T
  0.0648734299999987  0.3750000000000000  0.4563987550000022   F   F   F
  0.1959268175000020  0.3750000000000000  0.3986422724999983   F   F   F
  0.0709268175000020  0.3750000000000000  0.5236422724999983   F   F   F
  0.3003296224367276  0.1250070658174209  0.6025673647702234   T   T   T
  0.4290731824999980  0.1250000000000000  0.4763577275000017   F   F   F
  0.0601265700000013  0.6250000000000000  0.4186012449999978   F   F   F
  0.4351265700000013  0.6250000000000000  0.5436012449999978   F   F   F
  0.0504102328597611  0.6250096916130587  0.6164040557771173   T   T   T
  0.1797230262500022  0.6250000000000000  0.4946819537500033   F   F   F
  0.3125000000000000  0.5000000000000000  0.4375000000000000   F   F   F
  0.1893879146575230  0.4992596313376154  0.5623147260214836   T   T   T
  0.3125000000000000  0.7500000000000000  0.4375000000000000   F   F   F
  0.1893015592912590  0.7507260045197626  0.5622925746469036   T   T   T
  0.4452769737499978  0.8750000000000000  0.3803180462499967   F   F   F
  0.3202769737499978  0.8750000000000000  0.5053180462499967   F   F   F
  0.4430005945050084  0.8749774124479686  0.5791068660122107   T   T   T
  0.0648734299999987  0.8750000000000000  0.4563987550000022   F   F   F
  0.1959268175000020  0.8750000000000000  0.3986422724999983   F   F   F
  0.0709268175000020  0.8750000000000000  0.5236422724999983   F   F   F
  0.3004184440722995  0.6250222846634017  0.6025559347142320   T   T   T
  0.4290731824999980  0.6250000000000000  0.4763577275000017   F   F   F
  0.5601265700000013  0.1250000000000000  0.4186012449999978   F   F   F
  0.9351265700000013  0.1250000000000000  0.5436012449999978   F   F   F
  0.5503435533574645  0.1249852311433202  0.6163808403187545   T   T   T
  0.6797230262500022  0.1250000000000000  0.4946819537500033   F   F   F
  0.8125000000000000  0.0000000000000000  0.4375000000000000   F   F   F
  0.6892636629740281  0.9993002480558459  0.5622846963644363   T   T   T
  0.8125000000000000  0.2500000000000000  0.4375000000000000   F   F   F
  0.6893154908776751  0.2507222799425008  0.5622904976620617   T   T   T
  0.9452769737499978  0.3750000000000000  0.3803180462499967   F   F   F
  0.8202769737499978  0.3750000000000000  0.5053180462499967   F   F   F
  0.9428044595100928  0.3749679838222235  0.5790096167762258   T   T   T
  0.5648734299999987  0.3750000000000000  0.4563987550000022   F   F   F
  0.6959268175000020  0.3750000000000000  0.3986422724999983   F   F   F
  0.5709268175000020  0.3750000000000000  0.5236422724999983   F   F   F
  0.8004372775687330  0.1249958724121569  0.6025542579920540   T   T   T
  0.9290731824999980  0.1250000000000000  0.4763577275000017   F   F   F
  0.5601265700000013  0.6250000000000000  0.4186012449999978   F   F   F
  0.9351265700000013  0.6250000000000000  0.5436012449999978   F   F   F
  0.5504783892097933  0.6250094934723975  0.6163940935479317   T   T   T
  0.6797230262500022  0.6250000000000000  0.4946819537500033   F   F   F
  0.8125000000000000  0.5000000000000000  0.4375000000000000   F   F   F
  0.6892495201606081  0.4993473116199141  0.5622934225700362   T   T   T
  0.8125000000000000  0.7500000000000000  0.4375000000000000   F   F   F
  0.6891670801184446  0.7506363219650538  0.5622719451154410   T   T   T
  0.9452769737499978  0.8750000000000000  0.3803180462499967   F   F   F
  0.8202769737499978  0.8750000000000000  0.5053180462499967   F   F   F
  0.9427947663311329  0.8749793000314199  0.5790178939809394   T   T   T
  0.5648734299999987  0.8750000000000000  0.4563987550000022   F   F   F
  0.6959268175000020  0.8750000000000000  0.3986422724999983   F   F   F
  0.5709268175000020  0.8750000000000000  0.5236422724999983   F   F   F
  0.8005362404265313  0.6250138965902110  0.6025465905188838   T   T   T
  0.9290731824999980  0.6250000000000000  0.4763577275000017   F   F   F
 
  0.00000000E+00  0.00000000E+00  0.00000000E+00
  0.00000000E+00  0.00000000E+00  0.00000000E+00
  0.00000000E+00  0.00000000E+00  0.00000000E+00
  0.00000000E+00  0.00000000E+00  0.00000000E+00
  0.00000000E+00  0.00000000E+00  0.00000000E+00
  0.00000000E+00  0.00000000E+00  0.00000000E+00
  0.00000000E+00  0.00000000E+00  0.00000000E+00
  0.00000000E+00  0.00000000E+00  0.00000000E+00
  0.00000000E+00  0.00000000E+00  0.00000000E+00
  0.00000000E+00  0.00000000E+00  0.00000000E+00
  0.00000000E+00  0.00000000E+00  0.00000000E+00
  0.00000000E+00  0.00000000E+00  0.00000000E+00
  0.00000000E+00  0.00000000E+00  0.00000000E+00
  0.00000000E+00  0.00000000E+00  0.00000000E+00
  0.00000000E+00  0.00000000E+00  0.00000000E+00
  0.00000000E+00  0.00000000E+00  0.00000000E+00
  0.00000000E+00  0.00000000E+00  0.00000000E+00
  0.00000000E+00  0.00000000E+00  0.00000000E+00
  0.00000000E+00  0.00000000E+00  0.00000000E+00
  0.00000000E+00  0.00000000E+00  0.00000000E+00
  0.00000000E+00  0.00000000E+00  0.00000000E+00
  0.00000000E+00  0.00000000E+00  0.00000000E+00
  0.00000000E+00  0.00000000E+00  0.00000000E+00
  0.00000000E+00  0.00000000E+00  0.00000000E+00
  0.00000000E+00  0.00000000E+00  0.00000000E+00
  0.00000000E+00  0.00000000E+00  0.00000000E+00
  0.00000000E+00  0.00000000E+00  0.00000000E+00
  0.00000000E+00  0.00000000E+00  0.00000000E+00
  0.00000000E+00  0.00000000E+00  0.00000000E+00
  0.00000000E+00  0.00000000E+00  0.00000000E+00
  0.00000000E+00  0.00000000E+00  0.00000000E+00
  0.00000000E+00  0.00000000E+00  0.00000000E+00
  0.00000000E+00  0.00000000E+00  0.00000000E+00
  0.00000000E+00  0.00000000E+00  0.00000000E+00
  0.00000000E+00  0.00000000E+00  0.00000000E+00
  0.00000000E+00  0.00000000E+00  0.00000000E+00
  0.00000000E+00  0.00000000E+00  0.00000000E+00
  0.00000000E+00  0.00000000E+00  0.00000000E+00
  0.00000000E+00  0.00000000E+00  0.00000000E+00
  0.00000000E+00  0.00000000E+00  0.00000000E+00
  0.00000000E+00  0.00000000E+00  0.00000000E+00
  0.00000000E+00  0.00000000E+00  0.00000000E+00
  0.00000000E+00  0.00000000E+00  0.00000000E+00
  0.00000000E+00  0.00000000E+00  0.00000000E+00
  0.00000000E+00  0.00000000E+00  0.00000000E+00
  0.00000000E+00  0.00000000E+00  0.00000000E+00
  0.00000000E+00  0.00000000E+00  0.00000000E+00
  0.00000000E+00  0.00000000E+00  0.00000000E+00
  0.00000000E+00  0.00000000E+00  0.00000000E+00
  0.00000000E+00  0.00000000E+00  0.00000000E+00
  0.00000000E+00  0.00000000E+00  0.00000000E+00
  0.00000000E+00  0.00000000E+00  0.00000000E+00
  0.00000000E+00  0.00000000E+00  0.00000000E+00
  0.00000000E+00  0.00000000E+00  0.00000000E+00
  0.00000000E+00  0.00000000E+00  0.00000000E+00
  0.00000000E+00  0.00000000E+00  0.00000000E+00
  0.00000000E+00  0.00000000E+00  0.00000000E+00
  0.00000000E+00  0.00000000E+00  0.00000000E+00
  0.00000000E+00  0.00000000E+00  0.00000000E+00
  0.00000000E+00  0.00000000E+00  0.00000000E+00
  0.00000000E+00  0.00000000E+00  0.00000000E+00
  0.00000000E+00  0.00000000E+00  0.00000000E+00
  0.00000000E+00  0.00000000E+00  0.00000000E+00
  0.00000000E+00  0.00000000E+00  0.00000000E+00
