Bi Pd Pb
 1.0000000000000000
    10.2339687200000000    0.0000000000000000    0.0000000000000006
    -0.0000000000000007   11.8021790400000004    0.0000000000000007
     0.0000000000000000    0.0000000000000000   38.4925125199999982
Bi Pd Pb
12 48 4
Selective dynamics
Cartesian
  4.2812109574185273  2.9506276242796479 22.8658731187321003   T   T   T
  2.5601963404712542  0.0000000000000000 15.6330529800934421   F   F   F
  2.5601963404712542  0.0000000000000000 20.4516486648180305   F   F   F
  0.0036351056893443  4.4191631894790389 15.6491982795448301   F   F   F
  0.0036351056893443  4.4191631894790389 20.4355033653666425   F   F   F
  0.0036351056893445  1.4819263305209611 15.6491982795448301   F   F   F
  0.0036351056893445  1.4819263305209611 20.4355033653666425   F   F   F
  3.4212824174022103  4.4081543529141074 18.0423508224557345   F   F   F
  1.7175835061062275  4.4437378492049167 22.7859140186634370   T   T   T
  1.7174858095532437  1.4578339482158982 22.7862355329494797   T   T   T
  3.4212824174022107  1.4929351670858926 18.0423508224557345   F   F   F
  0.7877662919619814  0.0000000000000000 18.0423508224557345   F   F   F
  4.3231135604723558 -0.0000209515023926 22.7996804922009808   T   T   T
  2.5530200257555720  2.9505447600000001 15.6423044630150603   F   F   F
  2.5530200257555720  2.9505447600000001 20.4423971818964141   F   F   F
  0.8246929584260778  2.9505447600000001 18.0423508224557345   F   F   F
  4.2820559607095605  8.8507895591816510 22.8653325106866880   T   T   T
  2.5601963404712538  5.9010895200000002 15.6330529800934421   F   F   F
  2.5601963404712538  5.9010895200000002 20.4516486648180305   F   F   F
  0.0036351056893439 10.3202527094790391 15.6491982795448301   F   F   F
  0.0036351056893439 10.3202527094790391 20.4355033653666425   F   F   F
  0.0036351056893441  7.3830158505209615 15.6491982795448301   F   F   F
  0.0036351056893441  7.3830158505209615 20.4355033653666425   F   F   F
  3.4212824174022098 10.3092438729141076 18.0423508224557345   F   F   F
  1.7183112185740055 10.3447987489637079 22.7852378126632296   T   T   T
  1.7185188024014384  7.3584636622118254 22.7866760229522818   T   T   T
  3.4212824174022103  7.3940246870858930 18.0423508224557345   F   F   F
  0.7877662919619811  5.9010895200000002 18.0423508224557345   F   F   F
  4.3239736264508419  5.9009239811863106 22.8000485165981566   T   T   T
  2.5530200257555715  8.8516342800000007 15.6423044630150603   F   F   F
  2.5530200257555715  8.8516342800000007 20.4423971818964141   F   F   F
  0.8246929584260775  8.8516342800000007 18.0423508224557345   F   F   F
  9.3990179655917245  2.9506315328522281 22.8654141066805217   T   T   T
  7.6771807004712542  0.0000000000000000 15.6330529800934421   F   F   F
  7.6771807004712542  0.0000000000000000 20.4516486648180305   F   F   F
  5.1206194656893445  4.4191631894790389 15.6491982795448301   F   F   F
  5.1206194656893445  4.4191631894790389 20.4355033653666425   F   F   F
  5.1206194656893445  1.4819263305209611 15.6491982795448301   F   F   F
  5.1206194656893445  1.4819263305209611 20.4355033653666425   F   F   F
  8.5382667774022103  4.4081543529141074 18.0423508224557345   F   F   F
  6.8352432044266616  4.4437263499322572 22.7861522487152008   T   T   T
  6.8351840456525697  1.4578319225310907 22.7864288936440182   T   T   T
  8.5382667774022103  1.4929351670858926 18.0423508224557345   F   F   F
  5.9047506519619812  0.0000000000000000 18.0423508224557345   F   F   F
  9.4396642782297864 -0.0001187425091302 22.7998357449983935   T   T   T
  7.6700043857555720  2.9505447600000001 15.6423044630150603   F   F   F
  7.6700043857555720  2.9505447600000001 20.4423971818964141   F   F   F
  5.9416773184260778  2.9505447600000001 18.0423508224557345   F   F   F
  9.4000065393589693  8.8508001958577029 22.8650106051796804   T   T   T
  7.6771807004712542  5.9010895200000002 15.6330529800934421   F   F   F
  7.6771807004712542  5.9010895200000002 20.4516486648180305   F   F   F
  5.1206194656893445 10.3202527094790391 15.6491982795448301   F   F   F
  5.1206194656893445 10.3202527094790391 20.4355033653666425   F   F   F
  5.1206194656893445  7.3830158505209615 15.6491982795448301   F   F   F
  5.1206194656893445  7.3830158505209615 20.4355033653666425   F   F   F
  8.5382667774022103 10.3092438729141076 18.0423508224557345   F   F   F
  6.8359834520888407 10.3448435993052179 22.7854986309763383   T   T   T
  6.8361617220725766  7.3585220809919250 22.7868748928745966   T   T   T
  8.5382667774022103  7.3940246870858930 18.0423508224557345   F   F   F
  5.9047506519619812  5.9010895200000002 18.0423508224557345   F   F   F
  9.4406246572538226  5.9009618348669344 22.8002916211558961   T   T   T
  7.6700043857555720  8.8516342800000007 15.6423044630150603   F   F   F
  7.6700043857555720  8.8516342800000007 20.4423971818964141   F   F   F
  5.9416773184260778  8.8516342800000007 18.0423508224557345   F   F   F
