Ge Se O
 1.0000000000000000
    11.7750813299999990    0.0000000000000000    0.0000000000000007
    -0.0000000000000006    9.2101966599999994    0.0000000000000006
     0.0000000000000000    0.0000000000000000   33.8324215200000040
Ge Se O
24 24 1
Selective dynamics
Cartesian
  2.9437703324999993  4.0647979844793554 12.6872754685026763   F   F   F
  0.9845158761811557  0.5704914429291778 21.0831976864129373   T   T   T
  0.9812567774999998  1.7622488194793553 15.5064091314973282   F   F   F
  2.9437703324999998  2.8428495105206446 18.3260123885026793   F   F   F
  2.9577389466192212  2.3065103669822311 20.8707681962924809   T   T   T
  0.9812567774999998  2.3224874447805517 12.9446961013471622   F   F   F
  0.9812567774999996  4.5851600502194483 18.5834330213471652   F   F   F
  2.9437703324999998  0.0199382797805512 15.2489884986528441   F   F   F
  2.9437703324999989  8.6698963144793559 12.6872754685026763   F   F   F
  0.9870653169957739  5.1052501927826395 21.1047356634181469   T   T   T
  0.9812567774999995  6.3673471494793548 15.5064091314973282   F   F   F
  2.9437703324999993  7.4479478405206443 18.3260123885026793   F   F   F
  2.9439608857189987  6.8402038608271063 20.8767749285772126   T   T   T
  0.9812567774999995  6.9275857747805514 12.9446961013471622   F   F   F
  0.9812567774999993  9.1902583802194471 18.5834330213471652   F   F   F
  2.9437703324999993  4.6250366097805511 15.2489884986528441   F   F   F
  6.8687974424999991  4.0647979844793554 12.6872754685026763   F   F   F
  4.9327193617539580  0.5693086340537222 21.0927016707892889   T   T   T
  4.9062838874999999  1.7622488194793553 15.5064091314973282   F   F   F
  6.8687974425000000  2.8428495105206446 18.3260123885026793   F   F   F
  6.8547932253884944  2.2901025217459865 20.8492718551034315   T   T   T
  4.9062838874999999  2.3224874447805517 12.9446961013471622   F   F   F
  4.9062838874999990  4.5851600502194483 18.5834330213471652   F   F   F
  6.8687974425000000  0.0199382797805512 15.2489884986528441   F   F   F
  6.8687974424999982  8.6698963144793559 12.6872754685026763   F   F   F
  4.9050538623817239  5.0960308744671945 21.1025650837287557   T   T   T
  4.9062838874999990  6.3673471494793548 15.5064091314973282   F   F   F
  6.8687974424999991  7.4479478405206443 18.3260123885026793   F   F   F
  6.8343940566726813  6.9364355756239924 20.8985510147332363   T   T   T
  4.9062838874999990  6.9275857747805514 12.9446961013471622   F   F   F
  4.9062838874999990  9.1902583802194471 18.5834330213471652   F   F   F
  6.8687974424999991  4.6250366097805511 15.2489884986528441   F   F   F
 10.7938245524999985  4.0647979844793554 12.6872754685026763   F   F   F
  8.8412367610501992  0.5868716286562078 21.0966351338020885   T   T   T
  8.8313109974999993  1.7622488194793553 15.5064091314973282   F   F   F
 10.7938245524999985  2.8428495105206446 18.3260123885026793   F   F   F
 10.8265135766703935  2.2796363449623205 20.8457624268058836   T   T   T
  8.8313109974999993  2.3224874447805517 12.9446961013471622   F   F   F
  8.8313109974999993  4.5851600502194483 18.5834330213471652   F   F   F
 10.7938245524999985  0.0199382797805512 15.2489884986528441   F   F   F
 10.7938245524999985  8.6698963144793559 12.6872754685026763   F   F   F
  8.8434490657685405  5.4460487401212756 21.0006820719164224   T   T   T
  8.8313109974999993  6.3673471494793548 15.5064091314973282   F   F   F
 10.7938245524999985  7.4479478405206443 18.3260123885026793   F   F   F
 10.8397920998684896  6.9496293089411587 20.8925216361977775   T   T   T
  8.8313109974999993  6.9275857747805514 12.9446961013471622   F   F   F
  8.8313109974999993  9.1902583802194471 18.5834330213471652   F   F   F
 10.7938245524999985  4.6250366097805511 15.2489884986528441   F   F   F
  8.8643573534687690  4.4634220296279912 22.3883030834801069   T   T   T
