Cu Te O                                 
   1.00000000000000     
     8.1482185559654816    0.0000000000000000    0.0000000000000005
    -4.0741092779827399    7.0565642650538623    0.0000000000000005
     0.0000000000000000    0.0000000000000000   30.9732619199999988
   Cu   Te   O 
     8    16     1
Selective dynamics
Direct
  0.0000000000000000  0.0000000000000000  0.4166666666666643   F   F   F
  0.3333333333333357  0.1666666666666643  0.4620647533333369   F   F   F
  0.1666666666666643  0.3333333333333357  0.3712685799999988   F   F   F
  0.0311136125512164  0.9886438831776374  0.5899030614256731   T   T   T
  0.3851786184919348  0.1901668464673563  0.6312133056817544   T   T   T
  0.1666666666666643  0.3333333333333357  0.5379352466666631   F   F   F
  0.0000000000000000  0.5000000000000000  0.4166666666666643   F   F   F
  0.3333333333333357  0.6666666666666643  0.4620647533333369   F   F   F
  0.1666666666666643  0.8333333333333357  0.3712685799999988   F   F   F
  0.0011504565057692  0.4957219503058923  0.5856856983751442   T   T   T
  0.3361782440704175  0.6715957890497677  0.6276306189383121   T   T   T
  0.1666666666666643  0.8333333333333357  0.5379352466666631   F   F   F
  0.5000000000000000  0.0000000000000000  0.4166666666666643   F   F   F
  0.8333333333333357  0.1666666666666643  0.4620647533333369   F   F   F
  0.6666666666666643  0.3333333333333357  0.3712685799999988   F   F   F
  0.5144892869407443  0.0027850263608045  0.5857596766818034   T   T   T
  0.8114717657614818  0.2020743513602383  0.6403625252365615   T   T   T
  0.6666666666666643  0.3333333333333357  0.5379352466666631   F   F   F
  0.5000000000000000  0.5000000000000000  0.4166666666666643   F   F   F
  0.8333333333333357  0.6666666666666643  0.4620647533333369   F   F   F
  0.6666666666666643  0.8333333333333357  0.3712685799999988   F   F   F
  0.4986038122056087  0.5028482897052129  0.5845410562633404   T   T   T
  0.8191810541234261  0.6335594401447295  0.6293600107535156   T   T   T
  0.6666666666666643  0.8333333333333357  0.5379352466666631   F   F   F
  0.9517415390434181  0.0677048711342678  0.6412923463460345   T   T   T
 
  0.00000000E+00  0.00000000E+00  0.00000000E+00
  0.00000000E+00  0.00000000E+00  0.00000000E+00
  0.00000000E+00  0.00000000E+00  0.00000000E+00
  0.00000000E+00  0.00000000E+00  0.00000000E+00
  0.00000000E+00  0.00000000E+00  0.00000000E+00
  0.00000000E+00  0.00000000E+00  0.00000000E+00
  0.00000000E+00  0.00000000E+00  0.00000000E+00
  0.00000000E+00  0.00000000E+00  0.00000000E+00
  0.00000000E+00  0.00000000E+00  0.00000000E+00
  0.00000000E+00  0.00000000E+00  0.00000000E+00
  0.00000000E+00  0.00000000E+00  0.00000000E+00
  0.00000000E+00  0.00000000E+00  0.00000000E+00
  0.00000000E+00  0.00000000E+00  0.00000000E+00
  0.00000000E+00  0.00000000E+00  0.00000000E+00
  0.00000000E+00  0.00000000E+00  0.00000000E+00
  0.00000000E+00  0.00000000E+00  0.00000000E+00
  0.00000000E+00  0.00000000E+00  0.00000000E+00
  0.00000000E+00  0.00000000E+00  0.00000000E+00
  0.00000000E+00  0.00000000E+00  0.00000000E+00
  0.00000000E+00  0.00000000E+00  0.00000000E+00
  0.00000000E+00  0.00000000E+00  0.00000000E+00
  0.00000000E+00  0.00000000E+00  0.00000000E+00
  0.00000000E+00  0.00000000E+00  0.00000000E+00
  0.00000000E+00  0.00000000E+00  0.00000000E+00
  0.00000000E+00  0.00000000E+00  0.00000000E+00
