Cu Te O
 1.0000000000000000
     8.1482185559654816    0.0000000000000000    0.0000000000000005
    -4.0741092779827399    7.0565642650538623    0.0000000000000005
     0.0000000000000000    0.0000000000000000   30.9732619199999988
Cu Te O
8 16 1
Selective dynamics
Cartesian
  0.0000000000000000  0.0000000000000000 12.9055257999999977   F   F   F
  2.0370546389913704  1.1760940441756438 14.3116526289935244   F   F   F
 -0.0000000000000002  2.3521880883512876 11.4993989710064728   F   F   F
  0.2997865760407876 -0.0801351681584492 18.2712220289471823   T   T   T
  2.3637590529997885  1.3419245731795135 19.5507350442700130   T   T   T
 -0.0000000000000002  2.3521880883512876 16.6616092910064744   F   F   F
 -2.0370546389913700  3.5282821325269311 12.9055257999999977   F   F   F
  0.0000000000000004  4.7043761767025751 14.3116526289935244   F   F   F
 -2.0370546389913704  5.8804702208782187 11.4993989710064728   F   F   F
 -2.0102512259928091  3.4980937999313597 18.1405965385715042   T   T   T
  0.0030991712246764  4.7391588455692579 19.4397675493879518   T   T   T
 -2.0370546389913704  5.8804702208782187 16.6616092910064744   F   F   F
  4.0741092779827408  0.0000000000000000 12.9055257999999977   F   F   F
  6.1111639169741112  1.1760940441756438 14.3116526289935244   F   F   F
  4.0741092779827408  2.3521880883512876 11.4993989710064728   F   F   F
  4.1808246529600250  0.0196527174948642 18.1428878880400823   T   T   T
  5.7887763097006983  1.4259506466926004 19.8341162179045654   T   T   T
  4.0741092779827408  2.3521880883512876 16.6616092910064744   F   F   F
  2.0370546389913708  3.5282821325269311 12.9055257999999977   F   F   F
  4.0741092779827408  4.7043761767025751 14.3116526289935244   F   F   F
  2.0370546389913704  5.8804702208782187 11.4993989710064728   F   F   F
  2.0140739521830748  3.5483812718772811 18.1051432386379254   T   T   T
  4.0936758726567017  4.4707529051128256 19.4933324550425908   T   T   T
  2.0370546389913704  5.8804702208782187 16.6616092910064744   F   F   F
 -0.6690575307014687  0.4777637742161374 19.8629158106671682   T   T   T
