Tl Sb Te                                
   1.00000000000000     
     9.1309067117241938    0.0000000000000000    0.0000000000000006
    -0.0000000000000006    9.1309067117241938    0.0000000000000006
     0.0000000000000000    0.0000000000000000   41.5521886986188633
   Tl   Sb   Te
    18     2    12
Selective dynamics
Direct
  0.6453696700000009  0.8506581099999977  0.4691584795599795   F   F   F
  0.3575166319817313  0.8439629371624093  0.5304364421498136   T   T   T
  0.0000000000000000  0.0000000000000000  0.5843567062266501   F   F   F
  0.6425519040151499  0.1559578217864654  0.5304426661287707   T   T   T
  0.3546303299999991  0.1493418900000023  0.4691584795599795   F   F   F
  0.8506581099999977  0.3546303299999991  0.4691584795599795   F   F   F
  0.1560085932537234  0.3574959180901232  0.5304377009159396   T   T   T
  0.8440084477183092  0.6425288686422377  0.5304420172083013   T   T   T
  0.1493418900000023  0.6453696700000009  0.4691584795599795   F   F   F
  0.1639231282552984  0.3730689850144984  0.6362314790171695   T   T   T
  0.8572965649999986  0.3504397250000011  0.3645389978933125   F   F   F
  0.5000000000000000  0.5000000000000000  0.4176900395599787   F   F   F
  0.1427034350000014  0.6495602749999989  0.3645389978933125   F   F   F
  0.8360378796560184  0.6268695249534204  0.6362284929422302   T   T   T
  0.3731035946896100  0.8360504682734131  0.6362308417014617   T   T   T
  0.6495602749999989  0.8572965649999986  0.3645389978933125   F   F   F
  0.3504397250000011  0.1427034350000014  0.3645389978933125   F   F   F
  0.6268826334576829  0.1639592774721592  0.6362355861033251   T   T   T
  0.0000000000000000  0.0000000000000000  0.4193422062266450   F   F   F
  0.5000000000000000  0.5000000000000000  0.5860088728933164   F   F   F
  0.0000000000000000  0.0000000000000000  0.4923568195599799   F   F   F
  0.3502979249999996  0.1791192250000009  0.5830971678933139   F   F   F
  0.8208807749999991  0.3502979249999996  0.5830971678933139   F   F   F
  0.5000000000000000  0.5000000000000000  0.5020624978933128   F   F   F
  0.1791192250000009  0.6497020750000004  0.5830971678933139   F   F   F
  0.6497020750000004  0.8208807749999991  0.5830971678933139   F   F   F
  0.4999521700554084  0.4999683984510028  0.6563821750033938   T   T   T
  0.8502979249999996  0.6791192250000009  0.4164305012266496   F   F   F
  0.3208807749999991  0.8502979249999996  0.4164305012266496   F   F   F
  0.0000000000000000  0.0000000000000000  0.3353958312266485   F   F   F
  0.6791192250000009  0.1497020750000004  0.4164305012266496   F   F   F
  0.1497020750000004  0.3208807749999991  0.4164305012266496   F   F   F
 
  0.00000000E+00  0.00000000E+00  0.00000000E+00
  0.00000000E+00  0.00000000E+00  0.00000000E+00
  0.00000000E+00  0.00000000E+00  0.00000000E+00
  0.00000000E+00  0.00000000E+00  0.00000000E+00
  0.00000000E+00  0.00000000E+00  0.00000000E+00
  0.00000000E+00  0.00000000E+00  0.00000000E+00
  0.00000000E+00  0.00000000E+00  0.00000000E+00
  0.00000000E+00  0.00000000E+00  0.00000000E+00
  0.00000000E+00  0.00000000E+00  0.00000000E+00
  0.00000000E+00  0.00000000E+00  0.00000000E+00
  0.00000000E+00  0.00000000E+00  0.00000000E+00
  0.00000000E+00  0.00000000E+00  0.00000000E+00
  0.00000000E+00  0.00000000E+00  0.00000000E+00
  0.00000000E+00  0.00000000E+00  0.00000000E+00
  0.00000000E+00  0.00000000E+00  0.00000000E+00
  0.00000000E+00  0.00000000E+00  0.00000000E+00
  0.00000000E+00  0.00000000E+00  0.00000000E+00
  0.00000000E+00  0.00000000E+00  0.00000000E+00
  0.00000000E+00  0.00000000E+00  0.00000000E+00
  0.00000000E+00  0.00000000E+00  0.00000000E+00
  0.00000000E+00  0.00000000E+00  0.00000000E+00
  0.00000000E+00  0.00000000E+00  0.00000000E+00
  0.00000000E+00  0.00000000E+00  0.00000000E+00
  0.00000000E+00  0.00000000E+00  0.00000000E+00
  0.00000000E+00  0.00000000E+00  0.00000000E+00
  0.00000000E+00  0.00000000E+00  0.00000000E+00
  0.00000000E+00  0.00000000E+00  0.00000000E+00
  0.00000000E+00  0.00000000E+00  0.00000000E+00
  0.00000000E+00  0.00000000E+00  0.00000000E+00
  0.00000000E+00  0.00000000E+00  0.00000000E+00
  0.00000000E+00  0.00000000E+00  0.00000000E+00
  0.00000000E+00  0.00000000E+00  0.00000000E+00
