Tl Sb Te
 1.0000000000000000
     9.1309067117241938    0.0000000000000000    0.0000000000000006
    -0.0000000000000006    9.1309067117241938    0.0000000000000006
     0.0000000000000000    0.0000000000000000   41.5521886986188633
Tl Sb Te
18 2 12
Selective dynamics
Cartesian
  5.8928102513462273  7.7672798459816166 19.4945616722334805   F   F   F
  3.2644510145150085  7.7061468473826897 22.0407951368332142   T   T   T
  0.0000000000000000  0.0000000000000000 24.2813001244330806   F   F   F
  5.8670814930030808  1.4240363216959306 22.0410537567812135   T   T   T
  3.2380964603779678  1.3636268657425770 19.4945616722334769   F   F   F
  7.7672798459816166  3.2380964603779665 19.4945616722334805   F   F   F
  1.4244999112270671  3.2642618779031292 22.0408474413205333   T   T   T
  7.7065624000230235  5.8668711591619847 22.0410267927153036   T   T   T
  1.3636268657425765  5.8928102513462282 19.4945616722334805   F   F   F
  1.4967667919931544  3.4064580992050013 26.4368104721228327   T   T   T
  7.8278949592965965  3.1998324370572817 15.1473932284684487   F   F   F
  4.5654533558620969  4.5654533558620969 17.3559353413299355   F   F   F
  1.3030117524275961  5.9310742746669129 15.1473932284684523   F   F   F
  7.6337838866067766  5.7238871527725150 26.4366863941735382   T   T   T
  3.4067741169197956  7.6338988320978540 26.4367839902600998   T   T   T
  5.9310742746669121  7.8278949592965965 15.1473932284684523   F   F   F
  3.1998324370572817  1.3030117524275966 15.1473932284684523   F   F   F
  5.7240068453020667  1.4970968671199945 26.4369811305417706   T   T   T
  0.0000000000000000  0.0000000000000000 17.4245864824248393   F   F   F
  4.5654533558620969  4.5654533558620969 24.3499512655279844   F   F   F
  0.0000000000000000  0.0000000000000000 20.4585034734081965   F   F   F
  3.1985376744855603  1.6355209337513350 24.2289635499332690   F   F   F
  7.4953857779728592  3.1985376744855594 24.2289635499332690   F   F   F
  4.5654533558620969  4.5654533558620969 20.8617956509629607   F   F   F
  1.6355209337513346  5.9323690372386348 24.2289635499332690   F   F   F
  5.9323690372386340  7.4953857779728592 24.2289635499332690   F   F   F
  4.5650166251000357  4.5651648050662388 27.2741159941509288   T   T   T
  7.7639910303476549  6.2009742896134332 17.3035987668301239   F   F   F
  2.9299324221107623  7.7639910303476549 17.3035987668301239   F   F   F
  0.0000000000000000  0.0000000000000000 13.9364308678598174   F   F   F
  6.2009742896134332  1.3669156813765386 17.3035987668301239   F   F   F
  1.3669156813765384  2.9299324221107628 17.3035987668301239   F   F   F
