Se Tl Se Tl                             
   1.00000000000000     
    14.4232537018759395    0.0000000000000000    0.1330613426529288
     1.9664080866006213    8.6952780322739436    0.3546510662085637
     0.0000000000000000    0.0000000000000000   39.2909851637524525
   Se   Tl
    24    16
Selective dynamics
Direct
  0.3998969352725155  0.7947443463551735  0.5737818552601084   T   T   T
  0.1499962999999980  0.1500055500000030  0.4499981499999990   F   F   F
  0.1000037000000020  0.3499944499999970  0.5500018500000010   F   F   F
  0.3500037000000020  0.7249944499999970  0.4250018500000010   F   F   F
  0.3354704814994776  0.5052516312956641  0.5545947408519822   T   T   T
  0.0864386300000035  0.8958426275000022  0.4331759175000016   F   F   F
  0.4561774201163331  0.0289995364552880  0.5874672057528372   T   T   T
  0.2074658424999996  0.4133006637500003  0.4637763187499999   F   F   F
  0.4135613699999965  0.9791573724999978  0.4418240824999984   F   F   F
  0.1680832059744048  0.5928127794166898  0.5658853268725039   T   T   T
  0.0425341575000004  0.0866993362499997  0.5362236812500001   F   F   F
  0.2925341575000004  0.4616993362499997  0.4112236812500001   F   F   F
  0.2971669387384921  0.1659916809340558  0.5240544480024809   T   T   T
  0.0484259824999995  0.5198510262500022  0.3982666712499991   F   F   F
  0.2419242624999995  0.7946236062499992  0.4969084512500004   F   F   F
  0.4779795892299745  0.4739623598641813  0.6140931183021081   T   T   T
  0.4515740175000005  0.3551489737499978  0.4767333287500009   F   F   F
  0.1847287954454089  0.9611265157778419  0.5974016284802701   T   T   T
  0.2580757375000005  0.0803763937500008  0.3780915487499996   F   F   F
  0.0080757375000005  0.7053763937500008  0.5030915487499996   F   F   F
  0.8997109823458871  0.7951337728907859  0.5737466799904851   T   T   T
  0.6499962999999980  0.1500055500000030  0.4499981499999990   F   F   F
  0.6000037000000020  0.3499944499999970  0.5500018500000010   F   F   F
  0.8500037000000020  0.7249944499999970  0.4250018500000010   F   F   F
  0.8349957057201252  0.5051776732167426  0.5545884701195263   T   T   T
  0.5864386300000035  0.8958426275000022  0.4331759175000016   F   F   F
  0.9562815395187698  0.0288772732902416  0.5874786493116062   T   T   T
  0.7074658424999996  0.4133006637500003  0.4637763187499999   F   F   F
  0.9135613700000036  0.9791573724999978  0.4418240824999984   F   F   F
  0.6683923177585456  0.5925705749323527  0.5658743242970203   T   T   T
  0.5425341575000004  0.0866993362499997  0.5362236812500001   F   F   F
  0.7925341575000004  0.4616993362499997  0.4112236812500001   F   F   F
  0.7972665768774263  0.1658752092787168  0.5240173714490055   T   T   T
  0.5484259824999995  0.5198510262500022  0.3982666712499991   F   F   F
  0.7419242624999995  0.7946236062499992  0.4969084512500004   F   F   F
  0.9775979529745840  0.4742197385025975  0.6140332290596291   T   T   T
  0.9515740175000005  0.3551489737499978  0.4767333287500009   F   F   F
  0.6847362822775693  0.9614946483257825  0.5974017879958140   T   T   T
  0.7580757375000005  0.0803763937500008  0.3780915487499996   F   F   F
  0.5080757375000005  0.7053763937500008  0.5030915487499996   F   F   F
 
  0.00000000E+00  0.00000000E+00  0.00000000E+00
  0.00000000E+00  0.00000000E+00  0.00000000E+00
  0.00000000E+00  0.00000000E+00  0.00000000E+00
  0.00000000E+00  0.00000000E+00  0.00000000E+00
  0.00000000E+00  0.00000000E+00  0.00000000E+00
  0.00000000E+00  0.00000000E+00  0.00000000E+00
  0.00000000E+00  0.00000000E+00  0.00000000E+00
  0.00000000E+00  0.00000000E+00  0.00000000E+00
  0.00000000E+00  0.00000000E+00  0.00000000E+00
  0.00000000E+00  0.00000000E+00  0.00000000E+00
  0.00000000E+00  0.00000000E+00  0.00000000E+00
  0.00000000E+00  0.00000000E+00  0.00000000E+00
  0.00000000E+00  0.00000000E+00  0.00000000E+00
  0.00000000E+00  0.00000000E+00  0.00000000E+00
  0.00000000E+00  0.00000000E+00  0.00000000E+00
  0.00000000E+00  0.00000000E+00  0.00000000E+00
  0.00000000E+00  0.00000000E+00  0.00000000E+00
  0.00000000E+00  0.00000000E+00  0.00000000E+00
  0.00000000E+00  0.00000000E+00  0.00000000E+00
  0.00000000E+00  0.00000000E+00  0.00000000E+00
  0.00000000E+00  0.00000000E+00  0.00000000E+00
  0.00000000E+00  0.00000000E+00  0.00000000E+00
  0.00000000E+00  0.00000000E+00  0.00000000E+00
  0.00000000E+00  0.00000000E+00  0.00000000E+00
  0.00000000E+00  0.00000000E+00  0.00000000E+00
  0.00000000E+00  0.00000000E+00  0.00000000E+00
  0.00000000E+00  0.00000000E+00  0.00000000E+00
  0.00000000E+00  0.00000000E+00  0.00000000E+00
  0.00000000E+00  0.00000000E+00  0.00000000E+00
  0.00000000E+00  0.00000000E+00  0.00000000E+00
  0.00000000E+00  0.00000000E+00  0.00000000E+00
  0.00000000E+00  0.00000000E+00  0.00000000E+00
  0.00000000E+00  0.00000000E+00  0.00000000E+00
  0.00000000E+00  0.00000000E+00  0.00000000E+00
  0.00000000E+00  0.00000000E+00  0.00000000E+00
  0.00000000E+00  0.00000000E+00  0.00000000E+00
  0.00000000E+00  0.00000000E+00  0.00000000E+00
  0.00000000E+00  0.00000000E+00  0.00000000E+00
  0.00000000E+00  0.00000000E+00  0.00000000E+00
  0.00000000E+00  0.00000000E+00  0.00000000E+00
