Se Tl
 1.0000000000000000
    14.4232537018759395    0.0000000000000000    0.1330613426529288
     1.9664080866006213    8.6952780322739436    0.3546510662085637
     0.0000000000000000    0.0000000000000000   39.2909851637524525
Se Tl
24 16
Selective dynamics
Cartesian
  7.3306066614910366  6.9105230561360296 22.8795221151834376   T   T   T
  2.4584068157976673  1.3043399636341702 17.7540289726817271   F   F   F
  2.1306106529716260  3.0432990525027996 21.7475470598382401   F   F   F
  6.4738271109158463  6.3040283146055325 17.0024333998606316   F   F   F
  5.8321067577054322  4.3933034103757560 22.0143999171417164   T   T   T
  3.0083184771701315  7.7896007192753158 17.3491217309501948   F   F   F
  6.6365875863984529  0.2521590322857820 23.1531495619578038   T   T   T
  3.8050502482463382  3.5937641822296156 18.3964116639272959   F   F   F
  7.8903235361439998  8.5140455912383235 17.7619917078007248   F   F   F
  3.5900185660786645  5.1546719381132080 22.4667990438792131   T   T   T
  0.7839672205229551  0.7538748339073544 21.1051643685926784   F   F   F
  5.1271836784671736  4.0146040960100828 16.3600507086150557   F   F   F
  4.6125215329321998  1.4433438167660946 20.6890260999496007   T   T   T
  1.7206994932057378  4.5202492086066917 15.8390992182807384   F   F   F
  5.0518892998104743  6.9094731873519253 19.8380274621865880   F   F   F
  7.8260242969635589  4.1212344958517235 24.3600154625428971   T   T   T
  7.2115344335077713  3.0881190696330085 18.9173631542616114   F   F   F
  4.5543572356229429  8.3572622788790856 23.8379433265504304   T   T   T
  3.8803446269030344  0.6988950908877771 14.9184349103557672   F   F   F
  1.5035362555594387  6.1334438610589892 20.0181996365419472   F   F   F
 14.5403172376804974  6.9139092281363483 22.9447840829029914   T   T   T
  9.6700336667356375  1.3043399636341702 17.8205596440081919   F   F   F
  9.3422375039095957  3.0432990525027996 21.8140777311647049   F   F   F
 13.6854539618538169  6.3040283146055325 17.0689640711870965   F   F   F
 13.0367403653617888  4.3926603243167843 22.0805948015981990   T   T   T
 10.2199453281081016  7.7896007192753158 17.4156524022766597   F   F   F
 13.8494757586166770  0.2510959200726221 23.2201003554879186   T   T   T
 11.0166770991843084  3.5937641822296156 18.4629423352537607   F   F   F
 15.1019503870819705  8.5140455912383235 17.8285223791271896   F   F   F
 10.8056275418449594  5.1525659027812454 22.5328526459262370   T   T   T
  7.9955940714609248  0.7538748339073544 21.1716950399191433   F   F   F
 12.3388105294051442  4.0146040960100828 16.4265813799415206   F   F   F
 11.8253564592214850  1.4423310633400555 20.7540719481511822   T   T   T
  8.9323263441437071  4.5202492086066917 15.9056298896072033   F   F   F
 12.2635161507484440  6.9094731873519253 19.9045581335130528   F   F   F
 15.0326528228041241  4.1234724746723543 24.4242335251076490   T   T   T
 14.4231612844457402  3.0881190696330085 18.9838938255880763   F   F   F
 11.7668159698597279  8.3604632937361263 23.9046118202083484   T   T   T
 11.0919714778410032  0.6988950908877771 14.9849655816822320   F   F   F
  8.7151631064974087  6.1334438610589892 20.0847303078684121   F   F   F
