Bi Te Pb Bi Te Pb Bi Te Pb Bi Te Pb O   
   1.00000000000000     
     9.1435304498851977    0.0000000000000000    0.0000000000000006
    -4.5717652249426015    7.9185296498771365    0.0000000000000006
     0.0000000000000000    0.0000000000000000   55.8611204699999959
   Bi   Te   Pb   O 
     8    20     8     1
Selective dynamics
Direct
  0.3333333333333357  0.1666666666666643  0.5365187100000028   F   F   F
  0.1666666666666643  0.3333333333333357  0.4634812899999972   F   F   F
  0.1666666666666643  0.3333333333333357  0.3575093099999975   F   F   F
  0.1666666666666643  0.3333333333333357  0.5671627899999976   F   F   F
  0.3333333333333357  0.1666666666666643  0.4328372100000024   F   F   F
  0.0000000000000000  0.0000000000000000  0.5000000000000000   F   F   F
  0.3464827202640350  0.1582909274377187  0.6489676508561004   T   T   T
  0.0023939040511110  0.9962043578679740  0.6241988076550413   T   T   T
  0.0000000000000000  0.0000000000000000  0.3864436799999993   F   F   F
  0.3333333333333357  0.6666666666666643  0.5365187100000028   F   F   F
  0.1666666666666643  0.8333333333333357  0.4634812899999972   F   F   F
  0.1666666666666643  0.8333333333333357  0.3575093099999975   F   F   F
  0.1666666666666643  0.8333333333333357  0.5671627899999976   F   F   F
  0.3333333333333357  0.6666666666666643  0.4328372100000024   F   F   F
  0.0000000000000000  0.5000000000000000  0.5000000000000000   F   F   F
  0.3410731574601442  0.6616757473949235  0.6474358385443963   T   T   T
  0.0077829260448965  0.5016138480007442  0.6190408823854057   T   T   T
  0.0000000000000000  0.5000000000000000  0.3864436799999993   F   F   F
  0.8333333333333357  0.1666666666666643  0.5365187100000028   F   F   F
  0.6666666666666643  0.3333333333333357  0.4634812899999972   F   F   F
  0.6666666666666643  0.3333333333333357  0.3575093099999975   F   F   F
  0.6666666666666643  0.3333333333333357  0.5671627899999976   F   F   F
  0.8333333333333357  0.1666666666666643  0.4328372100000024   F   F   F
  0.5000000000000000  0.0000000000000000  0.5000000000000000   F   F   F
  0.7975051525139278  0.2035756679520588  0.6539841501105670   T   T   T
  0.5013654318381882  0.9941374942708023  0.6187974868152821   T   T   T
  0.5000000000000000  0.0000000000000000  0.3864436799999993   F   F   F
  0.8333333333333357  0.6666666666666643  0.5365187100000028   F   F   F
  0.6666666666666643  0.8333333333333357  0.4634812899999972   F   F   F
  0.6666666666666643  0.8333333333333357  0.3575093099999975   F   F   F
  0.6666666666666643  0.8333333333333357  0.5671627899999976   F   F   F
  0.8333333333333357  0.6666666666666643  0.4328372100000024   F   F   F
  0.5000000000000000  0.5000000000000000  0.5000000000000000   F   F   F
  0.8405019802155564  0.6532964935252181  0.6491801687102807   T   T   T
  0.5088154542347141  0.4909849688614472  0.6203261307774923   T   T   T
  0.5000000000000000  0.5000000000000000  0.3864436799999993   F   F   F
  0.9137711779833992  0.0748708144838872  0.6564985759297386   T   T   T
 
  0.00000000E+00  0.00000000E+00  0.00000000E+00
  0.00000000E+00  0.00000000E+00  0.00000000E+00
  0.00000000E+00  0.00000000E+00  0.00000000E+00
  0.00000000E+00  0.00000000E+00  0.00000000E+00
  0.00000000E+00  0.00000000E+00  0.00000000E+00
  0.00000000E+00  0.00000000E+00  0.00000000E+00
  0.00000000E+00  0.00000000E+00  0.00000000E+00
  0.00000000E+00  0.00000000E+00  0.00000000E+00
  0.00000000E+00  0.00000000E+00  0.00000000E+00
  0.00000000E+00  0.00000000E+00  0.00000000E+00
  0.00000000E+00  0.00000000E+00  0.00000000E+00
  0.00000000E+00  0.00000000E+00  0.00000000E+00
  0.00000000E+00  0.00000000E+00  0.00000000E+00
  0.00000000E+00  0.00000000E+00  0.00000000E+00
  0.00000000E+00  0.00000000E+00  0.00000000E+00
  0.00000000E+00  0.00000000E+00  0.00000000E+00
  0.00000000E+00  0.00000000E+00  0.00000000E+00
  0.00000000E+00  0.00000000E+00  0.00000000E+00
  0.00000000E+00  0.00000000E+00  0.00000000E+00
  0.00000000E+00  0.00000000E+00  0.00000000E+00
  0.00000000E+00  0.00000000E+00  0.00000000E+00
  0.00000000E+00  0.00000000E+00  0.00000000E+00
  0.00000000E+00  0.00000000E+00  0.00000000E+00
  0.00000000E+00  0.00000000E+00  0.00000000E+00
  0.00000000E+00  0.00000000E+00  0.00000000E+00
  0.00000000E+00  0.00000000E+00  0.00000000E+00
  0.00000000E+00  0.00000000E+00  0.00000000E+00
  0.00000000E+00  0.00000000E+00  0.00000000E+00
  0.00000000E+00  0.00000000E+00  0.00000000E+00
  0.00000000E+00  0.00000000E+00  0.00000000E+00
  0.00000000E+00  0.00000000E+00  0.00000000E+00
  0.00000000E+00  0.00000000E+00  0.00000000E+00
  0.00000000E+00  0.00000000E+00  0.00000000E+00
  0.00000000E+00  0.00000000E+00  0.00000000E+00
  0.00000000E+00  0.00000000E+00  0.00000000E+00
  0.00000000E+00  0.00000000E+00  0.00000000E+00
  0.00000000E+00  0.00000000E+00  0.00000000E+00
