Bi Te Pb O
 1.0000000000000000
     9.1435304498851977    0.0000000000000000    0.0000000000000006
    -4.5717652249426015    7.9185296498771365    0.0000000000000006
     0.0000000000000000    0.0000000000000000   55.8611204699999959
Bi Te Pb O
8 20 8 1
Selective dynamics
Cartesian
  2.2858826124712985  1.3197549416461900 29.9705362937189967   F   F   F
 -0.0000000000000009  2.6395098832923791 25.8905841762810063   F   F   F
 -0.0000000000000009  2.6395098832923791 19.9708706350565741   F   F   F
 -0.0000000000000009  2.6395098832923791 31.6823489382913088   F   F   F
  2.2858826124712985  1.3197549416461896 24.1787715317086871   F   F   F
  0.0000000000000000  0.0000000000000000 27.9305602349999980   F   F   F
  2.4444063456095799  1.2534314022221422 36.2520601256055315   T   T   T
  0.0392415192909539 -0.0300559047627758 34.8684447916487130   T   T   T
  0.0000000000000000  0.0000000000000000 21.5871769633501280   F   F   F
 -0.0000000000000022  5.2790197665847582 29.9705362937189967   F   F   F
 -2.2858826124713016  6.5987747082309474 25.8905841762810063   F   F   F
 -2.2858826124713016  6.5987747082309474 19.9708706350565741   F   F   F
 -2.2858826124713016  6.5987747082309474 31.6823489382913088   F   F   F
 -0.0000000000000022  5.2790197665847582 24.1787715317086871   F   F   F
 -2.2858826124713008  3.9592648249385682 27.9305602349999980   F   F   F
  0.0935866287472868  5.2394990243513231 36.1664913735239324   T   T   T
 -2.2220973253587775  3.9720441281828833 34.5803173067863696   T   T   T
 -2.2858826124713008  3.9592648249385682 21.5871769633501280   F   F   F
  6.8576478374138974  1.3197549416461900 29.9705362937189967   F   F   F
  4.5717652249425980  2.6395098832923791 25.8905841762810063   F   F   F
  4.5717652249425980  2.6395098832923791 19.9708706350565741   F   F   F
  4.5717652249425980  2.6395098832923791 31.6823489382913088   F   F   F
  6.8576478374138974  1.3197549416461896 24.1787715317086871   F   F   F
  4.5717652249425988  0.0000000000000000 27.9305602349999980   F   F   F
  6.3613124865637660  1.6120199626719312 36.5322873947970592   T   T   T
  4.6110520923560649 -0.0464224254392320 34.5667209575215253   T   T   T
  4.5717652249425988  0.0000000000000000 21.5871769633501280   F   F   F
  4.5717652249425971  5.2790197665847582 29.9705362937189967   F   F   F
  2.2858826124712972  6.5987747082309474 25.8905841762810063   F   F   F
  2.2858826124712972  6.5987747082309474 19.9708706350565741   F   F   F
  2.2858826124712972  6.5987747082309474 31.6823489382913088   F   F   F
  4.5717652249425971  5.2790197665847582 24.1787715317086871   F   F   F
  2.2858826124712981  3.9592648249385682 27.9305602349999980   F   F   F
  4.6984372586142360  5.1731476541401999 36.2639316110598529   T   T   T
  2.4077015925569616  3.8878790335733946 34.6521127220505747   T   T   T
  2.2858826124712981  3.9592648249385682 21.5871769633501280   F   F   F
 -1.1307276457870734  0.5928667644010834 36.6727460383947204   T   T   T
