Au Pd Tl O                              
   1.00000000000000     
     9.3848339692973219    0.0000000000000000    0.0000000000000006
    -0.0000000000000008   13.2721594799999991    0.0000000000000008
     0.0000000000000000    0.0000000000000000   37.5393358771892878
   Au   Pd   Tl   O 
    16    32    16     1
Selective dynamics
Direct
  0.2500000000000000  0.0000000000000000  0.4062500000000000   F   F   F
  0.2500000000000000  0.0000000000000000  0.5312500000000000   F   F   F
  0.0000000000000000  0.2500000000000000  0.4687500000000000   F   F   F
  0.9987604881172132  0.2440143705570961  0.5952200894560562   T   T   T
  0.0000000000000000  0.3750000000000000  0.5312500000000000   F   F   F
  0.0000000000000000  0.3750000000000000  0.4062500000000000   F   F   F
  0.2424221254034364  0.3672944146058796  0.5903085764087592   T   T   T
  0.2500000000000000  0.3750000000000000  0.4687500000000000   F   F   F
  0.2513610513750351  0.1238916949042874  0.5911460414105676   T   T   T
  0.2500000000000000  0.1250000000000000  0.4687500000000000   F   F   F
  0.0000000000000000  0.1250000000000000  0.4062500000000000   F   F   F
  0.0000000000000000  0.1250000000000000  0.5312500000000000   F   F   F
  0.0000000000000000  0.0000000000000000  0.4687500000000000   F   F   F
  0.0005857016394231  0.0003238270298951  0.6014104845041288   T   T   T
  0.2500000000000000  0.2500000000000000  0.4062500000000000   F   F   F
  0.2500000000000000  0.2500000000000000  0.5312500000000000   F   F   F
  0.2500000000000000  0.5000000000000000  0.4062500000000000   F   F   F
  0.2500000000000000  0.5000000000000000  0.5312500000000000   F   F   F
  0.0000000000000000  0.7500000000000000  0.4687500000000000   F   F   F
  0.9994134596538089  0.7568989806875450  0.5952763168659132   T   T   T
  0.0000000000000000  0.8750000000000000  0.5312500000000000   F   F   F
  0.0000000000000000  0.8750000000000000  0.4062500000000000   F   F   F
  0.2525480926799233  0.8768366483018966  0.5911175845307426   T   T   T
  0.2500000000000000  0.8750000000000000  0.4687500000000000   F   F   F
  0.2421616047476363  0.6321044985624056  0.5903008751006880   T   T   T
  0.2500000000000000  0.6250000000000000  0.4687500000000000   F   F   F
  0.0000000000000000  0.6250000000000000  0.4062500000000000   F   F   F
  0.0000000000000000  0.6250000000000000  0.5312500000000000   F   F   F
  0.0000000000000000  0.5000000000000000  0.4687500000000000   F   F   F
  0.0025873220820074  0.5000193378480162  0.6018087727346924   T   T   T
  0.2500000000000000  0.7500000000000000  0.4062500000000000   F   F   F
  0.2500000000000000  0.7500000000000000  0.5312500000000000   F   F   F
  0.7500000000000000  0.0000000000000000  0.4062500000000000   F   F   F
  0.7500000000000000  0.0000000000000000  0.5312500000000000   F   F   F
  0.5000000000000000  0.2500000000000000  0.4687500000000000   F   F   F
  0.4991686926707786  0.2499729811744800  0.5950962870150462   T   T   T
  0.5000000000000000  0.3750000000000000  0.5312500000000000   F   F   F
  0.5000000000000000  0.3750000000000000  0.4062500000000000   F   F   F
  0.7565571172384935  0.3675989444924994  0.5910496061950852   T   T   T
  0.7500000000000000  0.3750000000000000  0.4687500000000000   F   F   F
  0.7470354229593781  0.1225806544767067  0.5910145411561558   T   T   T
  0.7500000000000000  0.1250000000000000  0.4687500000000000   F   F   F
  0.5000000000000000  0.1250000000000000  0.4062500000000000   F   F   F
  0.5000000000000000  0.1250000000000000  0.5312500000000000   F   F   F
  0.5000000000000000  0.0000000000000000  0.4687500000000000   F   F   F
  0.4986583181626969  0.0001207518175903  0.6012398829652739   T   T   T
  0.7500000000000000  0.2500000000000000  0.4062500000000000   F   F   F
  0.7500000000000000  0.2500000000000000  0.5312500000000000   F   F   F
  0.7500000000000000  0.5000000000000000  0.4062500000000000   F   F   F
  0.7500000000000000  0.5000000000000000  0.5312500000000000   F   F   F
  0.5000000000000000  0.7500000000000000  0.4687500000000000   F   F   F
  0.4988873679498198  0.7499533382634596  0.5950892416731435   T   T   T
  0.5000000000000000  0.8750000000000000  0.5312500000000000   F   F   F
  0.5000000000000000  0.8750000000000000  0.4062500000000000   F   F   F
  0.7467535417034910  0.8771689270404579  0.5910933108463965   T   T   T
  0.7500000000000000  0.8750000000000000  0.4687500000000000   F   F   F
  0.7567209238037051  0.6327635336022581  0.5910103189886158   T   T   T
  0.7500000000000000  0.6250000000000000  0.4687500000000000   F   F   F
  0.5000000000000000  0.6250000000000000  0.4062500000000000   F   F   F
  0.5000000000000000  0.6250000000000000  0.5312500000000000   F   F   F
  0.5000000000000000  0.5000000000000000  0.4687500000000000   F   F   F
  0.4579560989980749  0.5003528096704457  0.6131580141843003   T   T   T
  0.7500000000000000  0.7500000000000000  0.4062500000000000   F   F   F
  0.7500000000000000  0.7500000000000000  0.5312500000000000   F   F   F
  0.6984931555886860  0.5003617655279768  0.6205961485107068   T   T   T
 
  0.00000000E+00  0.00000000E+00  0.00000000E+00
  0.00000000E+00  0.00000000E+00  0.00000000E+00
  0.00000000E+00  0.00000000E+00  0.00000000E+00
  0.00000000E+00  0.00000000E+00  0.00000000E+00
  0.00000000E+00  0.00000000E+00  0.00000000E+00
  0.00000000E+00  0.00000000E+00  0.00000000E+00
  0.00000000E+00  0.00000000E+00  0.00000000E+00
  0.00000000E+00  0.00000000E+00  0.00000000E+00
  0.00000000E+00  0.00000000E+00  0.00000000E+00
  0.00000000E+00  0.00000000E+00  0.00000000E+00
  0.00000000E+00  0.00000000E+00  0.00000000E+00
  0.00000000E+00  0.00000000E+00  0.00000000E+00
  0.00000000E+00  0.00000000E+00  0.00000000E+00
  0.00000000E+00  0.00000000E+00  0.00000000E+00
  0.00000000E+00  0.00000000E+00  0.00000000E+00
  0.00000000E+00  0.00000000E+00  0.00000000E+00
  0.00000000E+00  0.00000000E+00  0.00000000E+00
  0.00000000E+00  0.00000000E+00  0.00000000E+00
  0.00000000E+00  0.00000000E+00  0.00000000E+00
  0.00000000E+00  0.00000000E+00  0.00000000E+00
  0.00000000E+00  0.00000000E+00  0.00000000E+00
  0.00000000E+00  0.00000000E+00  0.00000000E+00
  0.00000000E+00  0.00000000E+00  0.00000000E+00
  0.00000000E+00  0.00000000E+00  0.00000000E+00
  0.00000000E+00  0.00000000E+00  0.00000000E+00
  0.00000000E+00  0.00000000E+00  0.00000000E+00
  0.00000000E+00  0.00000000E+00  0.00000000E+00
  0.00000000E+00  0.00000000E+00  0.00000000E+00
  0.00000000E+00  0.00000000E+00  0.00000000E+00
  0.00000000E+00  0.00000000E+00  0.00000000E+00
  0.00000000E+00  0.00000000E+00  0.00000000E+00
  0.00000000E+00  0.00000000E+00  0.00000000E+00
  0.00000000E+00  0.00000000E+00  0.00000000E+00
  0.00000000E+00  0.00000000E+00  0.00000000E+00
  0.00000000E+00  0.00000000E+00  0.00000000E+00
  0.00000000E+00  0.00000000E+00  0.00000000E+00
  0.00000000E+00  0.00000000E+00  0.00000000E+00
  0.00000000E+00  0.00000000E+00  0.00000000E+00
  0.00000000E+00  0.00000000E+00  0.00000000E+00
  0.00000000E+00  0.00000000E+00  0.00000000E+00
  0.00000000E+00  0.00000000E+00  0.00000000E+00
  0.00000000E+00  0.00000000E+00  0.00000000E+00
  0.00000000E+00  0.00000000E+00  0.00000000E+00
  0.00000000E+00  0.00000000E+00  0.00000000E+00
  0.00000000E+00  0.00000000E+00  0.00000000E+00
  0.00000000E+00  0.00000000E+00  0.00000000E+00
  0.00000000E+00  0.00000000E+00  0.00000000E+00
  0.00000000E+00  0.00000000E+00  0.00000000E+00
  0.00000000E+00  0.00000000E+00  0.00000000E+00
  0.00000000E+00  0.00000000E+00  0.00000000E+00
  0.00000000E+00  0.00000000E+00  0.00000000E+00
  0.00000000E+00  0.00000000E+00  0.00000000E+00
  0.00000000E+00  0.00000000E+00  0.00000000E+00
  0.00000000E+00  0.00000000E+00  0.00000000E+00
  0.00000000E+00  0.00000000E+00  0.00000000E+00
  0.00000000E+00  0.00000000E+00  0.00000000E+00
  0.00000000E+00  0.00000000E+00  0.00000000E+00
  0.00000000E+00  0.00000000E+00  0.00000000E+00
  0.00000000E+00  0.00000000E+00  0.00000000E+00
  0.00000000E+00  0.00000000E+00  0.00000000E+00
  0.00000000E+00  0.00000000E+00  0.00000000E+00
  0.00000000E+00  0.00000000E+00  0.00000000E+00
  0.00000000E+00  0.00000000E+00  0.00000000E+00
  0.00000000E+00  0.00000000E+00  0.00000000E+00
  0.00000000E+00  0.00000000E+00  0.00000000E+00
