Te O
 1.0000000000000000
     9.5692778400372518    0.0000000000000000    0.0000000000000006
    -0.0000000000000006    9.0646730800000004    0.0000000000000006
     0.0000000000000000    0.0000000000000000   31.5831563680198002
Te O
24 1
Selective dynamics
Cartesian
  2.1757121576055813  2.1681457053615349 12.6332625472079183   F   F   F
  2.6089267624130441  6.7004822453615356 12.6332625472079183   F   F   F
  0.0599597552467743  8.9814021830384654 12.6332625472079183   F   F   F
  4.7246791647718513  4.4490656430384652 12.6332625472079183   F   F   F
  2.1757121576055813  2.1681457053615349 15.7915781840099001   F   F   F
  2.6089267624130441  6.7004822453615356 15.7915781840099001   F   F   F
  0.0599597552467743  8.9814021830384654 15.7915781840099001   F   F   F
  4.7246791647718513  4.4490656430384652 15.7915781840099001   F   F   F
  2.3614024453390319  1.9979833745361293 18.7315236575661714   T   T   T
  2.5362203016349083  6.5827024592450920 18.7939371663735386   T   T   T
  0.1079878344866587  8.8819928138978348 18.7830956464888317   T   T   T
  4.7536902087028015  4.5043785056582228 18.7661331287956585   T   T   T
  6.9603510776242068  2.1681457053615349 12.6332625472079183   F   F   F
  7.3935656824316700  6.7004822453615356 12.6332625472079183   F   F   F
  4.8445986752654004  8.9814021830384654 12.6332625472079183   F   F   F
  9.5093180847904772  4.4490656430384652 12.6332625472079183   F   F   F
  6.9603510776242068  2.1681457053615349 15.7915781840099001   F   F   F
  7.3935656824316700  6.7004822453615356 15.7915781840099001   F   F   F
  4.8445986752654004  8.9814021830384654 15.7915781840099001   F   F   F
  9.5093180847904772  4.4490656430384652 15.7915781840099001   F   F   F
  7.1736930069919502  2.2525533367712387 18.7508483339781691   T   T   T
  7.4091093072049423  6.6018929139260303 18.9370336121312306   T   T   T
  4.7049725183192219  9.1490886684037314 18.9085377279691187   T   T   T
  9.4894484075627883  4.2981570939004987 18.7110021537948654   T   T   T
  6.1593147105792045  7.9523660283808102 19.7485127042449946   T   T   T
