Nb Ni Te                                
   1.00000000000000     
    15.2712326791044521    0.0000000000000000   -0.0389428208742573
    -0.0008273127015165   10.3351476022520892    3.1708026260560773
     0.0000000000000000    0.0000000000000000   42.9198283329956283
   Nb   Ni   Te
    16    40    48
Selective dynamics
Direct
  0.3126821075000024  0.4526124449999998  0.5831159916666664   F   F   F
  0.0626821075000024  0.9526124449999998  0.4164493250000021   F   F   F
  0.0626184400000014  0.4602864599999990  0.5831151733333328   F   F   F
  0.3126184400000014  0.9602864599999990  0.4164485066666685   F   F   F
  0.1873178924999976  0.5473875550000002  0.4168840083333336   F   F   F
  0.4373178924999976  0.0473875550000002  0.5835506749999979   F   F   F
  0.4373815599999986  0.5397135400000010  0.4168848266666672   F   F   F
  0.1873815599999986  0.0397135400000010  0.5835514933333315   F   F   F
  0.3137821449999976  0.3429298799999998  0.4148229166666653   F   F   F
  0.0637821449999976  0.8429298799999998  0.5814895833333367   F   F   F
  0.0612431500000028  0.3456829300000024  0.4145063166666674   F   F   F
  0.3112431500000028  0.8456829300000024  0.5811729833333317   F   F   F
  0.1862178550000024  0.6570701200000002  0.5851770833333347   F   F   F
  0.4362178550000024  0.1570701200000002  0.4185104166666633   F   F   F
  0.4387568499999972  0.6543170699999976  0.5854936833333326   F   F   F
  0.1887568499999972  0.1543170699999976  0.4188270166666683   F   F   F
  0.3131006300000010  0.7371406899999968  0.3978672666666654   F   F   F
  0.0631006300000010  0.2371406899999968  0.5645339333333368   F   F   F
  0.0614853399999973  0.7366909799999988  0.3974964433333312   F   F   F
  0.3114853399999973  0.2366909799999988  0.5641631100000026   F   F   F
  0.1868016948145623  0.2634786625935774  0.6020048285455175   T   T   T
  0.4368993699999990  0.7628593100000032  0.4354660666666703   F   F   F
  0.4387417715715074  0.2636745511825822  0.6020937862675950   T   T   T
  0.1885146600000027  0.7633090200000012  0.4358368899999974   F   F   F
  0.0629697468076600  0.6174018443102867  0.6236952820461283   T   T   T
  0.3122185725000008  0.1124066349999993  0.4633602783333330   F   F   F
  0.4377814274999992  0.3875933650000007  0.3699730550000027   F   F   F
  0.1877814274999992  0.8875933650000007  0.5366397216666670   F   F   F
  0.3090177174999980  0.2065692349999964  0.3743134783333346   F   F   F
  0.0590177174999980  0.7065692349999964  0.5409801449999989   F   F   F
  0.0650183500000026  0.2025331800000032  0.3763381733333304   F   F   F
  0.3150183500000026  0.7025331800000032  0.5430048400000018   F   F   F
  0.1888852621104959  0.7925474344684531  0.6268604670680205   T   T   T
  0.4409822825000020  0.2934307649999965  0.4590198550000011   F   F   F
  0.4369129333422350  0.7974497689358273  0.6242676238433162   T   T   T
  0.1849816499999974  0.2974668199999968  0.4569951599999982   F   F   F
  0.3104614699999999  0.5612521600000022  0.3668148933333342   F   F   F
  0.0604614699999999  0.0612521600000022  0.5334815599999985   F   F   F
  0.0639069550000002  0.5639699500000006  0.3655532666666659   F   F   F
  0.3139069550000002  0.0639699500000006  0.5322199333333302   F   F   F
  0.1894084857134288  0.4394659236684646  0.6333132145000278   T   T   T
  0.4395385300000001  0.9387478399999978  0.4665184400000015   F   F   F
  0.4365134243870301  0.4376861858825123  0.6336445558426007   T   T   T
  0.1860930449999998  0.9360300499999994  0.4677800666666698   F   F   F
  0.3134643249999982  0.6065555899999993  0.4621706266666692   F   F   F
  0.0634721220505909  0.1072550056934674  0.6289729329630163   T   T   T
  0.0622205075000011  0.6099406949999988  0.4619624516666647   F   F   F
  0.3121555032390191  0.1115786251575983  0.6288568064911075   T   T   T
  0.1865356750000018  0.3934444100000007  0.5378293733333308   F   F   F
  0.4365356750000018  0.8934444100000007  0.3711627066666665   F   F   F
  0.4377794924999989  0.3900593050000012  0.5380375483333353   F   F   F
  0.1877794924999989  0.8900593050000012  0.3713708816666639   F   F   F
  0.8126821075000024  0.4526124449999998  0.5831159916666664   F   F   F
  0.5626821075000024  0.9526124449999998  0.4164493250000021   F   F   F
  0.5626184400000014  0.4602864599999990  0.5831151733333328   F   F   F
  0.8126184400000014  0.9602864599999990  0.4164485066666685   F   F   F
  0.6873178924999976  0.5473875550000002  0.4168840083333336   F   F   F
  0.9373178924999976  0.0473875550000002  0.5835506749999979   F   F   F
  0.9373815599999986  0.5397135400000010  0.4168848266666672   F   F   F
  0.6873815599999986  0.0397135400000010  0.5835514933333315   F   F   F
  0.8137821449999976  0.3429298799999998  0.4148229166666653   F   F   F
  0.5637821449999976  0.8429298799999998  0.5814895833333367   F   F   F
  0.5612431500000028  0.3456829300000024  0.4145063166666674   F   F   F
  0.8112431500000028  0.8456829300000024  0.5811729833333317   F   F   F
  0.6862178550000024  0.6570701200000002  0.5851770833333347   F   F   F
  0.9362178550000024  0.1570701200000002  0.4185104166666633   F   F   F
  0.9387568499999972  0.6543170699999976  0.5854936833333326   F   F   F
  0.6887568499999972  0.1543170699999976  0.4188270166666683   F   F   F
  0.8131006300000010  0.7371406899999968  0.3978672666666654   F   F   F
  0.5631006300000010  0.2371406899999968  0.5645339333333368   F   F   F
  0.5614853399999973  0.7366909799999988  0.3974964433333312   F   F   F
  0.8114853399999973  0.2366909799999988  0.5641631100000026   F   F   F
  0.6867975080183371  0.2635864019948073  0.6019930959223316   T   T   T
  0.9368993699999990  0.7628593100000032  0.4354660666666703   F   F   F
  0.9387539229905073  0.2637109802718598  0.6021238572363004   T   T   T
  0.6885146600000027  0.7633090200000012  0.4358368899999974   F   F   F
  0.5630355374300251  0.6173914391425370  0.6236900475818175   T   T   T
  0.8122185725000008  0.1124066349999993  0.4633602783333330   F   F   F
  0.9377814274999992  0.3875933650000007  0.3699730550000027   F   F   F
  0.6877814274999992  0.8875933650000007  0.5366397216666670   F   F   F
  0.8090177174999980  0.2065692349999964  0.3743134783333346   F   F   F
  0.5590177174999980  0.7065692349999964  0.5409801449999989   F   F   F
  0.5650183500000026  0.2025331800000032  0.3763381733333304   F   F   F
  0.8150183500000026  0.7025331800000032  0.5430048400000018   F   F   F
  0.6888425351097354  0.7926970810620233  0.6268503226453319   T   T   T
  0.9409822825000020  0.2934307649999965  0.4590198550000011   F   F   F
  0.9369081401213890  0.7974570313402864  0.6242577106581209   T   T   T
  0.6849816499999974  0.2974668199999968  0.4569951599999982   F   F   F
  0.8104614699999999  0.5612521600000022  0.3668148933333342   F   F   F
  0.5604614699999999  0.0612521600000022  0.5334815599999985   F   F   F
  0.5639069550000002  0.5639699500000006  0.3655532666666659   F   F   F
  0.8139069550000002  0.0639699500000006  0.5322199333333302   F   F   F
  0.6894771600364678  0.4394399733967518  0.6333373511542177   T   T   T
  0.9395385300000001  0.9387478399999978  0.4665184400000015   F   F   F
  0.9364979283388237  0.4377020830547167  0.6336508370364626   T   T   T
  0.6860930449999998  0.9360300499999994  0.4677800666666698   F   F   F
  0.8134643249999982  0.6065555899999993  0.4621706266666692   F   F   F
  0.5635345514330581  0.1072969464781153  0.6289691154065480   T   T   T
  0.5622205075000011  0.6099406949999988  0.4619624516666647   F   F   F
  0.8121042715348636  0.1115718453404142  0.6288324031990626   T   T   T
  0.6865356750000018  0.3934444100000007  0.5378293733333308   F   F   F
  0.9365356750000018  0.8934444100000007  0.3711627066666665   F   F   F
  0.9377794924999989  0.3900593050000012  0.5380375483333353   F   F   F
  0.6877794924999989  0.8900593050000012  0.3713708816666639   F   F   F
 
  0.00000000E+00  0.00000000E+00  0.00000000E+00
  0.00000000E+00  0.00000000E+00  0.00000000E+00
  0.00000000E+00  0.00000000E+00  0.00000000E+00
  0.00000000E+00  0.00000000E+00  0.00000000E+00
  0.00000000E+00  0.00000000E+00  0.00000000E+00
  0.00000000E+00  0.00000000E+00  0.00000000E+00
  0.00000000E+00  0.00000000E+00  0.00000000E+00
  0.00000000E+00  0.00000000E+00  0.00000000E+00
  0.00000000E+00  0.00000000E+00  0.00000000E+00
  0.00000000E+00  0.00000000E+00  0.00000000E+00
  0.00000000E+00  0.00000000E+00  0.00000000E+00
  0.00000000E+00  0.00000000E+00  0.00000000E+00
  0.00000000E+00  0.00000000E+00  0.00000000E+00
  0.00000000E+00  0.00000000E+00  0.00000000E+00
  0.00000000E+00  0.00000000E+00  0.00000000E+00
  0.00000000E+00  0.00000000E+00  0.00000000E+00
  0.00000000E+00  0.00000000E+00  0.00000000E+00
  0.00000000E+00  0.00000000E+00  0.00000000E+00
  0.00000000E+00  0.00000000E+00  0.00000000E+00
  0.00000000E+00  0.00000000E+00  0.00000000E+00
  0.00000000E+00  0.00000000E+00  0.00000000E+00
  0.00000000E+00  0.00000000E+00  0.00000000E+00
  0.00000000E+00  0.00000000E+00  0.00000000E+00
  0.00000000E+00  0.00000000E+00  0.00000000E+00
  0.00000000E+00  0.00000000E+00  0.00000000E+00
  0.00000000E+00  0.00000000E+00  0.00000000E+00
  0.00000000E+00  0.00000000E+00  0.00000000E+00
  0.00000000E+00  0.00000000E+00  0.00000000E+00
  0.00000000E+00  0.00000000E+00  0.00000000E+00
  0.00000000E+00  0.00000000E+00  0.00000000E+00
  0.00000000E+00  0.00000000E+00  0.00000000E+00
  0.00000000E+00  0.00000000E+00  0.00000000E+00
  0.00000000E+00  0.00000000E+00  0.00000000E+00
  0.00000000E+00  0.00000000E+00  0.00000000E+00
  0.00000000E+00  0.00000000E+00  0.00000000E+00
  0.00000000E+00  0.00000000E+00  0.00000000E+00
  0.00000000E+00  0.00000000E+00  0.00000000E+00
  0.00000000E+00  0.00000000E+00  0.00000000E+00
  0.00000000E+00  0.00000000E+00  0.00000000E+00
  0.00000000E+00  0.00000000E+00  0.00000000E+00
  0.00000000E+00  0.00000000E+00  0.00000000E+00
  0.00000000E+00  0.00000000E+00  0.00000000E+00
  0.00000000E+00  0.00000000E+00  0.00000000E+00
  0.00000000E+00  0.00000000E+00  0.00000000E+00
  0.00000000E+00  0.00000000E+00  0.00000000E+00
  0.00000000E+00  0.00000000E+00  0.00000000E+00
  0.00000000E+00  0.00000000E+00  0.00000000E+00
  0.00000000E+00  0.00000000E+00  0.00000000E+00
  0.00000000E+00  0.00000000E+00  0.00000000E+00
  0.00000000E+00  0.00000000E+00  0.00000000E+00
  0.00000000E+00  0.00000000E+00  0.00000000E+00
  0.00000000E+00  0.00000000E+00  0.00000000E+00
  0.00000000E+00  0.00000000E+00  0.00000000E+00
  0.00000000E+00  0.00000000E+00  0.00000000E+00
  0.00000000E+00  0.00000000E+00  0.00000000E+00
  0.00000000E+00  0.00000000E+00  0.00000000E+00
  0.00000000E+00  0.00000000E+00  0.00000000E+00
  0.00000000E+00  0.00000000E+00  0.00000000E+00
  0.00000000E+00  0.00000000E+00  0.00000000E+00
  0.00000000E+00  0.00000000E+00  0.00000000E+00
  0.00000000E+00  0.00000000E+00  0.00000000E+00
  0.00000000E+00  0.00000000E+00  0.00000000E+00
  0.00000000E+00  0.00000000E+00  0.00000000E+00
  0.00000000E+00  0.00000000E+00  0.00000000E+00
  0.00000000E+00  0.00000000E+00  0.00000000E+00
  0.00000000E+00  0.00000000E+00  0.00000000E+00
  0.00000000E+00  0.00000000E+00  0.00000000E+00
  0.00000000E+00  0.00000000E+00  0.00000000E+00
  0.00000000E+00  0.00000000E+00  0.00000000E+00
  0.00000000E+00  0.00000000E+00  0.00000000E+00
  0.00000000E+00  0.00000000E+00  0.00000000E+00
  0.00000000E+00  0.00000000E+00  0.00000000E+00
  0.00000000E+00  0.00000000E+00  0.00000000E+00
  0.00000000E+00  0.00000000E+00  0.00000000E+00
  0.00000000E+00  0.00000000E+00  0.00000000E+00
  0.00000000E+00  0.00000000E+00  0.00000000E+00
  0.00000000E+00  0.00000000E+00  0.00000000E+00
  0.00000000E+00  0.00000000E+00  0.00000000E+00
  0.00000000E+00  0.00000000E+00  0.00000000E+00
  0.00000000E+00  0.00000000E+00  0.00000000E+00
  0.00000000E+00  0.00000000E+00  0.00000000E+00
  0.00000000E+00  0.00000000E+00  0.00000000E+00
  0.00000000E+00  0.00000000E+00  0.00000000E+00
  0.00000000E+00  0.00000000E+00  0.00000000E+00
  0.00000000E+00  0.00000000E+00  0.00000000E+00
  0.00000000E+00  0.00000000E+00  0.00000000E+00
  0.00000000E+00  0.00000000E+00  0.00000000E+00
  0.00000000E+00  0.00000000E+00  0.00000000E+00
  0.00000000E+00  0.00000000E+00  0.00000000E+00
  0.00000000E+00  0.00000000E+00  0.00000000E+00
  0.00000000E+00  0.00000000E+00  0.00000000E+00
  0.00000000E+00  0.00000000E+00  0.00000000E+00
  0.00000000E+00  0.00000000E+00  0.00000000E+00
  0.00000000E+00  0.00000000E+00  0.00000000E+00
  0.00000000E+00  0.00000000E+00  0.00000000E+00
  0.00000000E+00  0.00000000E+00  0.00000000E+00
  0.00000000E+00  0.00000000E+00  0.00000000E+00
  0.00000000E+00  0.00000000E+00  0.00000000E+00
  0.00000000E+00  0.00000000E+00  0.00000000E+00
  0.00000000E+00  0.00000000E+00  0.00000000E+00
  0.00000000E+00  0.00000000E+00  0.00000000E+00
  0.00000000E+00  0.00000000E+00  0.00000000E+00
  0.00000000E+00  0.00000000E+00  0.00000000E+00
  0.00000000E+00  0.00000000E+00  0.00000000E+00
