Ag Pt O                                 
   1.00000000000000     
     8.5458042134173819    0.0000000000000000    0.0000000000000005
    -4.2729021067086901    7.4008835445875452    0.0000000000000005
     0.0000000000000000    0.0000000000000000   43.0737851649507064
   Ag   Pt   O 
    27    27     1
Selective dynamics
Direct
  0.9975472665890166  0.9951187642573061  0.6471436525645728   T   T   T
  0.1111111111111143  0.2222222222222214  0.4246635094395899   F   F   F
  0.2222222222222214  0.1111111111111143  0.5357746205507041   F   F   F
  0.1111111111111143  0.2222222222222214  0.5913301761062542   F   F   F
  0.2222222222222214  0.1111111111111143  0.3691079538840327   F   F   F
  0.0000000000000000  0.0000000000000000  0.4802190649951470   F   F   F
  0.0014209895655668  0.3250291556054563  0.6480948834217486   T   T   T
  0.1111111111111143  0.5555555555555571  0.4246635094395899   F   F   F
  0.2222222222222214  0.4444444444444429  0.5357746205507041   F   F   F
  0.1111111111111143  0.5555555555555571  0.5913301761062542   F   F   F
  0.2222222222222214  0.4444444444444429  0.3691079538840327   F   F   F
  0.0000000000000000  0.3333333333333357  0.4802190649951470   F   F   F
  0.0002236722836031  0.6685912601881867  0.6477300784448090   T   T   T
  0.1111111111111143  0.8888888888888857  0.4246635094395899   F   F   F
  0.2222222222222214  0.7777777777777786  0.5357746205507041   F   F   F
  0.1111111111111143  0.8888888888888857  0.5913301761062542   F   F   F
  0.2222222222222214  0.7777777777777786  0.3691079538840327   F   F   F
  0.0000000000000000  0.6666666666666643  0.4802190649951470   F   F   F
  0.3296416306788004  0.9945224521714451  0.6471035362579940   T   T   T
  0.4444444444444429  0.2222222222222214  0.4246635094395899   F   F   F
  0.5555555555555571  0.1111111111111143  0.5357746205507041   F   F   F
  0.4444444444444429  0.2222222222222214  0.5913301761062542   F   F   F
  0.5555555555555571  0.1111111111111143  0.3691079538840327   F   F   F
  0.3333333333333357  0.0000000000000000  0.4802190649951470   F   F   F
  0.3297811770854580  0.3274237996886384  0.6473673399603967   T   T   T
  0.4444444444444429  0.5555555555555571  0.4246635094395899   F   F   F
  0.5555555555555571  0.4444444444444429  0.5357746205507041   F   F   F
  0.4444444444444429  0.5555555555555571  0.5913301761062542   F   F   F
  0.5555555555555571  0.4444444444444429  0.3691079538840327   F   F   F
  0.3333333333333357  0.3333333333333357  0.4802190649951470   F   F   F
  0.3321531081522764  0.6625261381403220  0.6471634386709439   T   T   T
  0.4444444444444429  0.8888888888888857  0.4246635094395899   F   F   F
  0.5555555555555571  0.7777777777777786  0.5357746205507041   F   F   F
  0.4444444444444429  0.8888888888888857  0.5913301761062542   F   F   F
  0.5555555555555571  0.7777777777777786  0.3691079538840327   F   F   F
  0.3333333333333357  0.6666666666666643  0.4802190649951470   F   F   F
  0.6627501296110125  0.9934825249235146  0.6471247584692961   T   T   T
  0.7777777777777786  0.2222222222222214  0.4246635094395899   F   F   F
  0.8888888888888857  0.1111111111111143  0.5357746205507041   F   F   F
  0.7777777777777786  0.2222222222222214  0.5913301761062542   F   F   F
  0.8888888888888857  0.1111111111111143  0.3691079538840327   F   F   F
  0.6666666666666643  0.0000000000000000  0.4802190649951470   F   F   F
  0.6569600933330122  0.3254732902339441  0.6477066300858709   T   T   T
  0.7777777777777786  0.5555555555555571  0.4246635094395899   F   F   F
  0.8888888888888857  0.4444444444444429  0.5357746205507041   F   F   F
  0.7777777777777786  0.5555555555555571  0.5913301761062542   F   F   F
  0.8888888888888857  0.4444444444444429  0.3691079538840327   F   F   F
  0.6666666666666643  0.3333333333333357  0.4802190649951470   F   F   F
  0.6629181177928132  0.6625912180229676  0.6471344900463976   T   T   T
  0.7777777777777786  0.8888888888888857  0.4246635094395899   F   F   F
  0.8888888888888857  0.7777777777777786  0.5357746205507041   F   F   F
  0.7777777777777786  0.8888888888888857  0.5913301761062542   F   F   F
  0.8888888888888857  0.7777777777777786  0.3691079538840327   F   F   F
  0.6666666666666643  0.6666666666666643  0.4802190649951470   F   F   F
  0.8865065885589019  0.4394472306419743  0.6792572629792986   T   T   T
 
  0.00000000E+00  0.00000000E+00  0.00000000E+00
  0.00000000E+00  0.00000000E+00  0.00000000E+00
  0.00000000E+00  0.00000000E+00  0.00000000E+00
  0.00000000E+00  0.00000000E+00  0.00000000E+00
  0.00000000E+00  0.00000000E+00  0.00000000E+00
  0.00000000E+00  0.00000000E+00  0.00000000E+00
  0.00000000E+00  0.00000000E+00  0.00000000E+00
  0.00000000E+00  0.00000000E+00  0.00000000E+00
  0.00000000E+00  0.00000000E+00  0.00000000E+00
  0.00000000E+00  0.00000000E+00  0.00000000E+00
  0.00000000E+00  0.00000000E+00  0.00000000E+00
  0.00000000E+00  0.00000000E+00  0.00000000E+00
  0.00000000E+00  0.00000000E+00  0.00000000E+00
  0.00000000E+00  0.00000000E+00  0.00000000E+00
  0.00000000E+00  0.00000000E+00  0.00000000E+00
  0.00000000E+00  0.00000000E+00  0.00000000E+00
  0.00000000E+00  0.00000000E+00  0.00000000E+00
  0.00000000E+00  0.00000000E+00  0.00000000E+00
  0.00000000E+00  0.00000000E+00  0.00000000E+00
  0.00000000E+00  0.00000000E+00  0.00000000E+00
  0.00000000E+00  0.00000000E+00  0.00000000E+00
  0.00000000E+00  0.00000000E+00  0.00000000E+00
  0.00000000E+00  0.00000000E+00  0.00000000E+00
  0.00000000E+00  0.00000000E+00  0.00000000E+00
  0.00000000E+00  0.00000000E+00  0.00000000E+00
  0.00000000E+00  0.00000000E+00  0.00000000E+00
  0.00000000E+00  0.00000000E+00  0.00000000E+00
  0.00000000E+00  0.00000000E+00  0.00000000E+00
  0.00000000E+00  0.00000000E+00  0.00000000E+00
  0.00000000E+00  0.00000000E+00  0.00000000E+00
  0.00000000E+00  0.00000000E+00  0.00000000E+00
  0.00000000E+00  0.00000000E+00  0.00000000E+00
  0.00000000E+00  0.00000000E+00  0.00000000E+00
  0.00000000E+00  0.00000000E+00  0.00000000E+00
  0.00000000E+00  0.00000000E+00  0.00000000E+00
  0.00000000E+00  0.00000000E+00  0.00000000E+00
  0.00000000E+00  0.00000000E+00  0.00000000E+00
  0.00000000E+00  0.00000000E+00  0.00000000E+00
  0.00000000E+00  0.00000000E+00  0.00000000E+00
  0.00000000E+00  0.00000000E+00  0.00000000E+00
  0.00000000E+00  0.00000000E+00  0.00000000E+00
  0.00000000E+00  0.00000000E+00  0.00000000E+00
  0.00000000E+00  0.00000000E+00  0.00000000E+00
  0.00000000E+00  0.00000000E+00  0.00000000E+00
  0.00000000E+00  0.00000000E+00  0.00000000E+00
  0.00000000E+00  0.00000000E+00  0.00000000E+00
  0.00000000E+00  0.00000000E+00  0.00000000E+00
  0.00000000E+00  0.00000000E+00  0.00000000E+00
  0.00000000E+00  0.00000000E+00  0.00000000E+00
  0.00000000E+00  0.00000000E+00  0.00000000E+00
  0.00000000E+00  0.00000000E+00  0.00000000E+00
  0.00000000E+00  0.00000000E+00  0.00000000E+00
  0.00000000E+00  0.00000000E+00  0.00000000E+00
  0.00000000E+00  0.00000000E+00  0.00000000E+00
  0.00000000E+00  0.00000000E+00  0.00000000E+00
