Ag Pt O
 1.0000000000000000
     8.5458042134173819    0.0000000000000000    0.0000000000000005
    -4.2729021067086901    7.4008835445875452    0.0000000000000005
     0.0000000000000000    0.0000000000000000   43.0737851649507064
Ag Pt O
27 27 1
Selective dynamics
Cartesian
 -0.0001035370296449 -0.0361254572853795 27.8749266614278319   T   T   T
  0.0000000000000001  1.6446407876861213 18.2918647729949022   F   F   F
  1.4243007022362302  0.8223203938430610 23.0778409024338700   F   F   F
  0.0000000000000003  1.6446407876861218 25.4708289671533556   F   F   F
  1.4243007022362308  0.8223203938430612 15.8988767082754183   F   F   F
 -0.0000000000000002  0.0000000000000008 20.6848528377143843   F   F   F
 -1.3766742651116668  2.4055029292315839 27.9158997750120186   T   T   T
 -1.4243007022362302  4.1116019692153030 18.2918647729949022   F   F   F
  0.0000000000000000  3.2892815753722431 23.0778409024338700   F   F   F
 -1.4243007022362297  4.1116019692153039 25.4708289671533556   F   F   F
  0.0000000000000007  3.2892815753722431 15.8988767082754183   F   F   F
 -1.4243007022362304  2.4669611815291828 20.6848528377143843   F   F   F
 -2.8549135446414899  4.9481660555818143 27.9001862438082178   T   T   T
 -2.8486014044724604  6.5785631507444853 18.2918647729949022   F   F   F
 -1.4243007022362302  5.7562427569014245 23.0778409024338700   F   F   F
 -2.8486014044724599  6.5785631507444853 25.4708289671533556   F   F   F
 -1.4243007022362295  5.7562427569014254 15.8988767082754183   F   F   F
 -2.8486014044724604  4.9339223630583646 20.6848528377143843   F   F   F
  2.8404578620288841 -0.0405386935890419 27.8731987002567045   T   T   T
  2.8486014044724608  1.6446407876861213 18.2918647729949022   F   F   F
  4.2729021067086910  0.8223203938430610 23.0778409024338700   F   F   F
  2.8486014044724612  1.6446407876861218 25.4708289671533556   F   F   F
  4.2729021067086919  0.8223203938430612 15.8988767082754183   F   F   F
  2.8486014044724608  0.0000000000000008 20.6848528377143843   F   F   F
  1.4191955291664797  2.4232254112219880 27.8845617242597079   T   T   T
  1.4243007022362306  4.1116019692153030 18.2918647729949022   F   F   F
  2.8486014044724608  3.2892815753722431 23.0778409024338700   F   F   F
  1.4243007022362311  4.1116019692153039 25.4708289671533556   F   F   F
  2.8486014044724612  3.2892815753722431 15.8988767082754183   F   F   F
  1.4243007022362304  2.4669611815291828 20.6848528377143843   F   F   F
  0.0076060997380414  4.9032787936218574 27.8757789239229616   T   T   T
  0.0000000000000006  6.5785631507444853 18.2918647729949022   F   F   F
  1.4243007022362306  5.7562427569014245 23.0778409024338700   F   F   F
  0.0000000000000008  6.5785631507444853 25.4708289671533556   F   F   F
  1.4243007022362313  5.7562427569014254 15.8988767082754183   F   F   F
  0.0000000000000003  4.9339223630583646 20.6848528377143843   F   F   F
  5.6915813830574100 -0.0482350740458060 27.8741128212269693   T   T   T
  5.6972028089449216  1.6446407876861213 18.2918647729949022   F   F   F
  7.1215035111811513  0.8223203938430610 23.0778409024338700   F   F   F
  5.6972028089449216  1.6446407876861218 25.4708289671533556   F   F   F
  7.1215035111811522  0.8223203938430612 15.8988767082754183   F   F   F
  5.6972028089449216  0.0000000000000008 20.6848528377143843   F   F   F
  4.2235368261342714  2.4087899178951875 27.8991762342331064   T   T   T
  4.2729021067086919  4.1116019692153030 18.2918647729949022   F   F   F
  5.6972028089449225  3.2892815753722431 23.0778409024338700   F   F   F
  4.2729021067086919  4.1116019692153039 25.4708289671533556   F   F   F
  5.6972028089449225  3.2892815753722431 15.8988767082754183   F   F   F
  4.2729021067086919  2.4669611815291828 20.6848528377143843   F   F   F
  2.8339810328075288  4.9037604422544154 27.8745319970884786   T   T   T
  2.8486014044724612  6.5785631507444853 18.2918647729949022   F   F   F
  4.2729021067086919  5.7562427569014245 23.0778409024338700   F   F   F
  2.8486014044724617  6.5785631507444853 25.4708289671533556   F   F   F
  4.2729021067086919  5.7562427569014254 15.8988767082754183   F   F   F
  2.8486014044724612  4.9339223630583646 20.6848528377143843   F   F   F
  5.6981967421315689  3.2522977779727316 29.2581814173025982   T   T   T
