Hg Pd                                   
   1.00000000000000     
     9.3446052078756523    0.0000000000000000    0.0000000000000006
    -0.0000000000000006    9.7038783921006679   -2.1172296531142538
     0.0000000000000000    0.0000000000000000   34.7625802601825029
   Hg   Pd
    24    24
Selective dynamics
Direct
  0.0000000000000000  0.0000000000000000  0.4642857142857153   F   F   F
  0.0000000000000000  0.2500000000000000  0.3928571428571459   F   F   F
  0.1666666666666643  0.0000000000000000  0.3928571428571459   F   F   F
  0.1666666666666643  0.2500000000000000  0.4642857142857153   F   F   F
  0.9999483705372114  0.0047802614277686  0.6130401036160436   T   T   T
  0.0000000000000000  0.2500000000000000  0.5357142857142847   F   F   F
  0.1666666666666643  0.0000000000000000  0.5357142857142847   F   F   F
  0.1666402057033380  0.2456878434826635  0.6034568885948133   T   T   T
  0.0000000000000000  0.5000000000000000  0.4642857142857153   F   F   F
  0.0000000000000000  0.7500000000000000  0.3928571428571459   F   F   F
  0.1666666666666643  0.5000000000000000  0.3928571428571459   F   F   F
  0.1666666666666643  0.7500000000000000  0.4642857142857153   F   F   F
  0.9998816313488774  0.5047864481506892  0.6130534575770312   T   T   T
  0.0000000000000000  0.7500000000000000  0.5357142857142847   F   F   F
  0.1666666666666643  0.5000000000000000  0.5357142857142847   F   F   F
  0.1666591303537430  0.7456990779794310  0.6034592426713346   T   T   T
  0.3333333333333357  0.0000000000000000  0.4642857142857153   F   F   F
  0.3333333333333357  0.2500000000000000  0.3928571428571459   F   F   F
  0.5000000000000000  0.0000000000000000  0.3928571428571459   F   F   F
  0.5000000000000000  0.2500000000000000  0.4642857142857153   F   F   F
  0.3334275364867523  0.0047783792225147  0.6130445033135459   T   T   T
  0.3333333333333357  0.2500000000000000  0.5357142857142847   F   F   F
  0.5000000000000000  0.0000000000000000  0.5357142857142847   F   F   F
  0.4999316738818749  0.2456990150398113  0.6034586135723430   T   T   T
  0.3333333333333357  0.5000000000000000  0.4642857142857153   F   F   F
  0.3333333333333357  0.7500000000000000  0.3928571428571459   F   F   F
  0.5000000000000000  0.5000000000000000  0.3928571428571459   F   F   F
  0.5000000000000000  0.7500000000000000  0.4642857142857153   F   F   F
  0.3333884632308113  0.5047389568103497  0.6130470389596283   T   T   T
  0.3333333333333357  0.7500000000000000  0.5357142857142847   F   F   F
  0.5000000000000000  0.5000000000000000  0.5357142857142847   F   F   F
  0.4998962992282827  0.7457446257577232  0.6034637199022157   T   T   T
  0.6666666666666643  0.0000000000000000  0.4642857142857153   F   F   F
  0.6666666666666643  0.2500000000000000  0.3928571428571459   F   F   F
  0.8333333333333357  0.0000000000000000  0.3928571428571459   F   F   F
  0.8333333333333357  0.2500000000000000  0.4642857142857153   F   F   F
  0.6666730622534800  0.0048608578986133  0.6131159717237153   T   T   T
  0.6666666666666643  0.2500000000000000  0.5357142857142847   F   F   F
  0.8333333333333357  0.0000000000000000  0.5357142857142847   F   F   F
  0.8333821950153251  0.2456503004790065  0.6034471299022286   T   T   T
  0.6666666666666643  0.5000000000000000  0.4642857142857153   F   F   F
  0.6666666666666643  0.7500000000000000  0.3928571428571459   F   F   F
  0.8333333333333357  0.5000000000000000  0.3928571428571459   F   F   F
  0.8333333333333357  0.7500000000000000  0.4642857142857153   F   F   F
  0.6666358322913695  0.5049188768282846  0.6131119279068926   T   T   T
  0.6666666666666643  0.7500000000000000  0.5357142857142847   F   F   F
  0.8333333333333357  0.5000000000000000  0.5357142857142847   F   F   F
  0.8334002195177845  0.7457035412805197  0.6034501289389524   T   T   T
 
  0.00000000E+00  0.00000000E+00  0.00000000E+00
  0.00000000E+00  0.00000000E+00  0.00000000E+00
  0.00000000E+00  0.00000000E+00  0.00000000E+00
  0.00000000E+00  0.00000000E+00  0.00000000E+00
  0.00000000E+00  0.00000000E+00  0.00000000E+00
  0.00000000E+00  0.00000000E+00  0.00000000E+00
  0.00000000E+00  0.00000000E+00  0.00000000E+00
  0.00000000E+00  0.00000000E+00  0.00000000E+00
  0.00000000E+00  0.00000000E+00  0.00000000E+00
  0.00000000E+00  0.00000000E+00  0.00000000E+00
  0.00000000E+00  0.00000000E+00  0.00000000E+00
  0.00000000E+00  0.00000000E+00  0.00000000E+00
  0.00000000E+00  0.00000000E+00  0.00000000E+00
  0.00000000E+00  0.00000000E+00  0.00000000E+00
  0.00000000E+00  0.00000000E+00  0.00000000E+00
  0.00000000E+00  0.00000000E+00  0.00000000E+00
  0.00000000E+00  0.00000000E+00  0.00000000E+00
  0.00000000E+00  0.00000000E+00  0.00000000E+00
  0.00000000E+00  0.00000000E+00  0.00000000E+00
  0.00000000E+00  0.00000000E+00  0.00000000E+00
  0.00000000E+00  0.00000000E+00  0.00000000E+00
  0.00000000E+00  0.00000000E+00  0.00000000E+00
  0.00000000E+00  0.00000000E+00  0.00000000E+00
  0.00000000E+00  0.00000000E+00  0.00000000E+00
  0.00000000E+00  0.00000000E+00  0.00000000E+00
  0.00000000E+00  0.00000000E+00  0.00000000E+00
  0.00000000E+00  0.00000000E+00  0.00000000E+00
  0.00000000E+00  0.00000000E+00  0.00000000E+00
  0.00000000E+00  0.00000000E+00  0.00000000E+00
  0.00000000E+00  0.00000000E+00  0.00000000E+00
  0.00000000E+00  0.00000000E+00  0.00000000E+00
  0.00000000E+00  0.00000000E+00  0.00000000E+00
  0.00000000E+00  0.00000000E+00  0.00000000E+00
  0.00000000E+00  0.00000000E+00  0.00000000E+00
  0.00000000E+00  0.00000000E+00  0.00000000E+00
  0.00000000E+00  0.00000000E+00  0.00000000E+00
  0.00000000E+00  0.00000000E+00  0.00000000E+00
  0.00000000E+00  0.00000000E+00  0.00000000E+00
  0.00000000E+00  0.00000000E+00  0.00000000E+00
  0.00000000E+00  0.00000000E+00  0.00000000E+00
  0.00000000E+00  0.00000000E+00  0.00000000E+00
  0.00000000E+00  0.00000000E+00  0.00000000E+00
  0.00000000E+00  0.00000000E+00  0.00000000E+00
  0.00000000E+00  0.00000000E+00  0.00000000E+00
  0.00000000E+00  0.00000000E+00  0.00000000E+00
  0.00000000E+00  0.00000000E+00  0.00000000E+00
  0.00000000E+00  0.00000000E+00  0.00000000E+00
  0.00000000E+00  0.00000000E+00  0.00000000E+00
