Hg Pd
 1.0000000000000000
     9.3446052078756523    0.0000000000000000    0.0000000000000006
    -0.0000000000000006    9.7038783921006679   -2.1172296531142538
     0.0000000000000000    0.0000000000000000   34.7625802601825029
Hg Pd
24 24
Selective dynamics
Cartesian
  0.0000000000000000  0.0000000000000000 16.1397694065133059   F   F   F
 -0.0000000000000001  2.4259695980251670 13.1274205460788487   F   F   F
  1.5574342013126086  0.0000000000000000 13.6567279593574114   F   F   F
  1.5574342013126083  2.4259695980251670 15.6104619932347433   F   F   F
 -0.0004824569468838  0.0463870755775133 21.3007348934188734   T   T   T
 -0.0000000000000001  2.4259695980251670 18.0935034403906343   F   F   F
  1.5574342013126086  0.0000000000000000 18.6228108536691970   F   F   F
  1.5571869340568496  2.3841249555732609 20.4575409357059605   T   T   T
 -0.0000000000000003  4.8519391960503340 15.0811545799561788   F   F   F
 -0.0000000000000004  7.2779087940755005 12.0688057195217215   F   F   F
  1.5574342013126083  4.8519391960503340 12.5981131328002842   F   F   F
  1.5574342013126081  7.2779087940755005 14.5518471666776161   F   F   F
 -0.0011061083137068  4.8983863068346905 20.2425711862892008   T   T   T
 -0.0000000000000004  7.2779087940755005 17.0348886138335089   F   F   F
  1.5574342013126083  4.8519391960503340 17.5641960271120716   F   F   F
  1.5573637774436317  7.2361731698140090 19.3989841569133041   T   T   T
  3.1148684026252171  0.0000000000000000 16.1397694065133059   F   F   F
  3.1148684026252171  2.4259695980251670 13.1274205460788487   F   F   F
  4.6723026039378261  0.0000000000000000 13.6567279593574114   F   F   F
  4.6723026039378253  2.4259695980251670 15.6104619932347433   F   F   F
  3.1157486939032255  0.0463688108866336 21.3008918233172402   T   T   T
  3.1148684026252171  2.4259695980251670 18.0935034403906343   F   F   F
  4.6723026039378261  0.0000000000000000 18.6228108536691970   F   F   F
  4.6716641233385614  2.3842333630052415 20.4575772476238988   T   T   T
  3.1148684026252167  4.8519391960503340 15.0811545799561788   F   F   F
  3.1148684026252167  7.2779087940755005 12.0688057195217215   F   F   F
  4.6723026039378253  4.8519391960503340 12.5981131328002842   F   F   F
  4.6723026039378253  7.2779087940755005 14.5518471666776161   F   F   F
  3.1153835697523218  4.8979254566433879 20.2424486086605562   T   T   T
  3.1148684026252167  7.2779087940755005 17.0348886138335089   F   F   F
  4.6723026039378253  4.8519391960503340 17.5641960271120716   F   F   F
  4.6713335611663949  7.2366151599155444 19.3990433619042797   T   T   T
  6.2297368052504343  0.0000000000000000 16.1397694065133059   F   F   F
  6.2297368052504343  2.4259695980251670 13.1274205460788487   F   F   F
  7.7871710065630424  0.0000000000000000 13.6567279593574114   F   F   F
  7.7871710065630424  2.4259695980251670 15.6104619932347433   F   F   F
  6.2297965694842450  0.0471691739294329 21.3032016233628632   T   T   T
  6.2297368052504343  2.4259695980251670 18.0935034403906343   F   F   F
  7.7871710065630424  0.0000000000000000 18.6228108536691970   F   F   F
  7.7876275996910209  2.3837606428312390 20.4572811855325334   T   T   T
  6.2297368052504343  4.8519391960503340 15.0811545799561788   F   F   F
  6.2297368052504343  7.2779087940755005 12.0688057195217215   F   F   F
  7.7871710065630424  4.8519391960503340 12.5981131328002842   F   F   F
  7.7871710065630424  7.2779087940755005 14.5518471666776161   F   F   F
  6.2294486701864233  4.8996713786177493 20.2443233839006957   T   T   T
  6.2297368052504343  7.2779087940755005 17.0348886138335089   F   F   F
  7.7871710065630424  4.8519391960503340 17.5641960271120716   F   F   F
  7.7877960315506272  7.2362164811449645 19.3986578902264064   T   T   T
