K Se O                                  
   1.00000000000000     
    11.2360082381183783    0.0000000000000000    0.0000000000000007
    -5.6180041190591918    9.7306685713417451    0.0000000000000007
     0.0000000000000000    0.0000000000000000   41.2837303936473816
   K    Se   O 
    24    12     1
Selective dynamics
Direct
  0.3333333333333357  0.1666666666666643  0.4166666666666643   F   F   F
  0.5000000000000000  0.5000000000000000  0.5277777777777786   F   F   F
  0.1810057156482046  0.3165247311854316  0.6441316321465962   T   T   T
  0.1666666666666643  0.3333333333333357  0.4722222222222214   F   F   F
  0.3333333333333357  0.1666666666666643  0.5833333333333357   F   F   F
  0.5000000000000000  0.5000000000000000  0.3611111111111143   F   F   F
  0.4927936270052129  0.4998500062563949  0.6114837054342814   T   T   T
  0.1666666666666643  0.3333333333333357  0.3888888888888857   F   F   F
  0.3333333333333357  0.1666666666666643  0.5000000000000000   F   F   F
  0.3333333333333357  0.6666666666666643  0.4166666666666643   F   F   F
  0.5000000000000000  0.0000000000000000  0.5277777777777786   F   F   F
  0.1541346956863308  0.8303732557857799  0.6407188215302710   T   T   T
  0.1666666666666643  0.8333333333333357  0.4722222222222214   F   F   F
  0.3333333333333357  0.6666666666666643  0.5833333333333357   F   F   F
  0.5000000000000000  0.0000000000000000  0.3611111111111143   F   F   F
  0.4963842268278285  0.9978739488221180  0.6124550839912715   T   T   T
  0.1666666666666643  0.8333333333333357  0.3888888888888857   F   F   F
  0.3333333333333357  0.6666666666666643  0.5000000000000000   F   F   F
  0.8333333333333357  0.1666666666666643  0.4166666666666643   F   F   F
  0.0000000000000000  0.5000000000000000  0.5277777777777786   F   F   F
  0.6666182485910639  0.3479933053869644  0.6413472033083352   T   T   T
  0.6666666666666643  0.3333333333333357  0.4722222222222214   F   F   F
  0.8333333333333357  0.1666666666666643  0.5833333333333357   F   F   F
  0.0000000000000000  0.5000000000000000  0.3611111111111143   F   F   F
  0.0089927784094996  0.4893108593704483  0.6137544735740335   T   T   T
  0.6666666666666643  0.3333333333333357  0.3888888888888857   F   F   F
  0.8333333333333357  0.1666666666666643  0.5000000000000000   F   F   F
  0.8333333333333357  0.6666666666666643  0.4166666666666643   F   F   F
  0.0000000000000000  0.0000000000000000  0.5277777777777786   F   F   F
  0.6654432356216162  0.8323320886595624  0.6380621892688154   T   T   T
  0.6666666666666643  0.8333333333333357  0.4722222222222214   F   F   F
  0.8333333333333357  0.6666666666666643  0.5833333333333357   F   F   F
  0.0000000000000000  0.0000000000000000  0.3611111111111143   F   F   F
  0.0012345640919662  0.0044690948302630  0.6116200417792186   T   T   T
  0.6666666666666643  0.8333333333333357  0.3888888888888857   F   F   F
  0.8333333333333357  0.6666666666666643  0.5000000000000000   F   F   F
  0.9229392243294328  0.5718863013124817  0.6338866451695111   T   T   T
 
  0.00000000E+00  0.00000000E+00  0.00000000E+00
  0.00000000E+00  0.00000000E+00  0.00000000E+00
  0.00000000E+00  0.00000000E+00  0.00000000E+00
  0.00000000E+00  0.00000000E+00  0.00000000E+00
  0.00000000E+00  0.00000000E+00  0.00000000E+00
  0.00000000E+00  0.00000000E+00  0.00000000E+00
  0.00000000E+00  0.00000000E+00  0.00000000E+00
  0.00000000E+00  0.00000000E+00  0.00000000E+00
  0.00000000E+00  0.00000000E+00  0.00000000E+00
  0.00000000E+00  0.00000000E+00  0.00000000E+00
  0.00000000E+00  0.00000000E+00  0.00000000E+00
  0.00000000E+00  0.00000000E+00  0.00000000E+00
  0.00000000E+00  0.00000000E+00  0.00000000E+00
  0.00000000E+00  0.00000000E+00  0.00000000E+00
  0.00000000E+00  0.00000000E+00  0.00000000E+00
  0.00000000E+00  0.00000000E+00  0.00000000E+00
  0.00000000E+00  0.00000000E+00  0.00000000E+00
  0.00000000E+00  0.00000000E+00  0.00000000E+00
  0.00000000E+00  0.00000000E+00  0.00000000E+00
  0.00000000E+00  0.00000000E+00  0.00000000E+00
  0.00000000E+00  0.00000000E+00  0.00000000E+00
  0.00000000E+00  0.00000000E+00  0.00000000E+00
  0.00000000E+00  0.00000000E+00  0.00000000E+00
  0.00000000E+00  0.00000000E+00  0.00000000E+00
  0.00000000E+00  0.00000000E+00  0.00000000E+00
  0.00000000E+00  0.00000000E+00  0.00000000E+00
  0.00000000E+00  0.00000000E+00  0.00000000E+00
  0.00000000E+00  0.00000000E+00  0.00000000E+00
  0.00000000E+00  0.00000000E+00  0.00000000E+00
  0.00000000E+00  0.00000000E+00  0.00000000E+00
  0.00000000E+00  0.00000000E+00  0.00000000E+00
  0.00000000E+00  0.00000000E+00  0.00000000E+00
  0.00000000E+00  0.00000000E+00  0.00000000E+00
  0.00000000E+00  0.00000000E+00  0.00000000E+00
  0.00000000E+00  0.00000000E+00  0.00000000E+00
  0.00000000E+00  0.00000000E+00  0.00000000E+00
  0.00000000E+00  0.00000000E+00  0.00000000E+00
