K Se O
 1.0000000000000000
    11.2360082381183783    0.0000000000000000    0.0000000000000007
    -5.6180041190591918    9.7306685713417451    0.0000000000000007
     0.0000000000000000    0.0000000000000000   41.2837303936473816
K Se O
24 12 1
Selective dynamics
Cartesian
  2.8090020595295924  1.6217780952236196 17.2015543306864060   F   F   F
  2.8090020595295941  4.8653342856708690 21.7886354855361191   F   F   F
  0.2555444685858654  3.0799972537984717 26.5921566395601623   T   T   T
 -0.0000000000000029  3.2435561904472454 19.4950949081112661   F   F   F
  2.8090020595295955  1.6217780952236205 24.0821760629609791   F   F   F
  2.8090020595295946  4.8653342856708655 14.9080137532615566   F   F   F
  2.7288738586626273  4.8638747462640426 25.2443284352573798   T   T   T
 -0.0000000000000040  3.2435561904472485 16.0547840419739849   F   F   F
  2.8090020595295946  1.6217780952236196 20.6418651968236908   F   F   F
 -0.0000000000000036  6.4871123808944926 17.2015543306864060   F   F   F
 -0.0000000000000018  9.7306685713417416 21.7886354855361191   F   F   F
 -2.9331816608496633  8.0800869425574362 26.4512630861910658   T   T   T
 -2.8090020595295986  8.1088904761181180 19.4950949081112661   F   F   F
 -0.0000000000000004  6.4871123808944926 24.0821760629609791   F   F   F
 -0.0000000000000013  9.7306685713417380 14.9080137532615566   F   F   F
 -0.0286826928750115  9.7099806719640753 25.2844305657143238   T   T   T
 -2.8090020595295999  8.1088904761181215 16.0547840419739849   F   F   F
 -0.0000000000000013  6.4871123808944926 20.6418651968236908   F   F   F
  8.4270061785887815  1.6217780952236196 17.2015543306864060   F   F   F
  8.4270061785887833  4.8653342856708690 21.7886354855361191   F   F   F
  5.5351003097802414  3.3862075197662920 26.4772050301009223   T   T   T
  5.6180041190591865  3.2435561904472454 19.4950949081112661   F   F   F
  8.4270061785887851  1.6217780952236205 24.0821760629609791   F   F   F
  8.4270061785887833  4.8653342856708655 14.9080137532615566   F   F   F
  8.5881007469675410  4.7613218008922162 25.3380742149254772   T   T   T
  5.6180041190591847  3.2435561904472485 16.0547840419739849   F   F   F
  8.4270061785887833  1.6217780952236196 20.6418651968236908   F   F   F
  5.6180041190591856  6.4871123808944926 17.2015543306864060   F   F   F
  5.6180041190591874  9.7306685713417416 21.7886354855361191   F   F   F
  2.8008805749300496  8.0991476960388624 26.3415873961541003   T   T   T
  2.8090020595295906  8.1088904761181180 19.4950949081112661   F   F   F
  5.6180041190591883  6.4871123808944926 24.0821760629609791   F   F   F
  5.6180041190591883  9.7306685713417380 14.9080137532615566   F   F   F
  5.6067682982020770  9.7741558519489615 25.2499569081644992   T   T   T
  2.8090020595295893  8.1088904761181215 16.0547840419739849   F   F   F
  5.6180041190591883  6.4871123808944926 20.6418651968236908   F   F   F
  7.1572931314410271  5.5648360585622392 26.1692053593117819   T   T   T
