Hg Pd H O                               
   1.00000000000000     
    10.7611006800000002    0.0000000000000000    0.0000000000000007
    -0.0000000000000007   10.7611006800000002    0.0000000000000007
     0.0000000000000000    0.0000000000000000   32.2833020400000024
   Hg   Pd   H    O 
    32    32     1     1
Selective dynamics
Direct
  0.1717827149999991  0.3282172850000009  0.4739275716666640   F   F   F
  0.3282172850000009  0.0782172850000009  0.4427390950000003   F   F   F
  0.0782172850000009  0.1717827149999991  0.3905942383333354   F   F   F
  0.4217827149999991  0.4217827149999991  0.3594057616666646   F   F   F
  0.3262737399999978  0.1737262600000022  0.3587579133333350   F   F   F
  0.1737262600000022  0.4237262600000022  0.3912420866666650   F   F   F
  0.4237262600000022  0.3262737399999978  0.4420912466666636   F   F   F
  0.0762737399999978  0.0762737399999978  0.4745754200000007   F   F   F
  0.1101807541481250  0.3435313201275747  0.6434784745559199   T   T   T
  0.3049532524103284  0.0740746891658972  0.6243095002081063   T   T   T
  0.0782172850000009  0.1717827149999991  0.5572609049999997   F   F   F
  0.4217827149999991  0.4217827149999991  0.5260724283333360   F   F   F
  0.3262737399999978  0.1737262600000022  0.5254245799999993   F   F   F
  0.1737262600000022  0.4237262600000022  0.5579087533333364   F   F   F
  0.3886154975779448  0.3163537075224241  0.6040381483715933   T   T   T
  0.0523653627380938  0.1002910971659503  0.6378576925738670   T   T   T
  0.1717827149999991  0.8282172850000009  0.4739275716666640   F   F   F
  0.3282172850000009  0.5782172850000009  0.4427390950000003   F   F   F
  0.0782172850000009  0.6717827149999991  0.3905942383333354   F   F   F
  0.4217827149999991  0.9217827149999991  0.3594057616666646   F   F   F
  0.3262737399999978  0.6737262600000022  0.3587579133333350   F   F   F
  0.1737262600000022  0.9237262600000022  0.3912420866666650   F   F   F
  0.4237262600000022  0.8262737399999978  0.4420912466666636   F   F   F
  0.0762737399999978  0.5762737399999978  0.4745754200000007   F   F   F
  0.1124511719875585  0.8552333853898659  0.6444967202829162   T   T   T
  0.3127912126353323  0.5726081734417505  0.6179566746917899   T   T   T
  0.0782172850000009  0.6717827149999991  0.5572609049999997   F   F   F
  0.4217827149999991  0.9217827149999991  0.5260724283333360   F   F   F
  0.3262737399999978  0.6737262600000022  0.5254245799999993   F   F   F
  0.1737262600000022  0.9237262600000022  0.5579087533333364   F   F   F
  0.3872023169750562  0.8198211534730220  0.6041250041646080   T   T   T
  0.0595567253973002  0.6111907615147487  0.6402558038108666   T   T   T
  0.6717827149999991  0.3282172850000009  0.4739275716666640   F   F   F
  0.8282172850000009  0.0782172850000009  0.4427390950000003   F   F   F
  0.5782172850000009  0.1717827149999991  0.3905942383333354   F   F   F
  0.9217827149999991  0.4217827149999991  0.3594057616666646   F   F   F
  0.8262737399999978  0.1737262600000022  0.3587579133333350   F   F   F
  0.6737262600000022  0.4237262600000022  0.3912420866666650   F   F   F
  0.9237262600000022  0.3262737399999978  0.4420912466666636   F   F   F
  0.5762737399999978  0.0762737399999978  0.4745754200000007   F   F   F
  0.6223242820341213  0.2815120961038744  0.6469072785673617   T   T   T
  0.8094134839907312  0.0401993869471653  0.6284774528465391   T   T   T
  0.5782172850000009  0.1717827149999991  0.5572609049999997   F   F   F
  0.9217827149999991  0.4217827149999991  0.5260724283333360   F   F   F
  0.8262737399999978  0.1737262600000022  0.5254245799999993   F   F   F
  0.6737262600000022  0.4237262600000022  0.5579087533333364   F   F   F
  0.8708364153701424  0.2884534285228639  0.6038442527165699   T   T   T
  0.5537813349417817  0.0296325223481588  0.6288655273927191   T   T   T
  0.6717827149999991  0.8282172850000009  0.4739275716666640   F   F   F
  0.8282172850000009  0.5782172850000009  0.4427390950000003   F   F   F
  0.5782172850000009  0.6717827149999991  0.3905942383333354   F   F   F
  0.9217827149999991  0.9217827149999991  0.3594057616666646   F   F   F
  0.8262737399999978  0.6737262600000022  0.3587579133333350   F   F   F
  0.6737262600000022  0.9237262600000022  0.3912420866666650   F   F   F
  0.9237262600000022  0.8262737399999978  0.4420912466666636   F   F   F
  0.5762737399999978  0.5762737399999978  0.4745754200000007   F   F   F
  0.6240133358923856  0.7820688210589779  0.6461235901341524   T   T   T
  0.8185821378979838  0.5431931116675557  0.6237115963075652   T   T   T
  0.5782172850000009  0.6717827149999991  0.5572609049999997   F   F   F
  0.9217827149999991  0.9217827149999991  0.5260724283333360   F   F   F
  0.8262737399999978  0.6737262600000022  0.5254245799999993   F   F   F
  0.6737262600000022  0.9237262600000022  0.5579087533333364   F   F   F
  0.8774975956711941  0.7937114344159610  0.6033892348914875   T   T   T
  0.5614756204640656  0.5289593593682866  0.6295056317673300   T   T   T
  0.0395497629642350  0.4975510792556932  0.7117301598882904   T   T   T
  0.1135834951813024  0.5046082247494823  0.6943355203881936   T   T   T
 
  0.00000000E+00  0.00000000E+00  0.00000000E+00
  0.00000000E+00  0.00000000E+00  0.00000000E+00
  0.00000000E+00  0.00000000E+00  0.00000000E+00
  0.00000000E+00  0.00000000E+00  0.00000000E+00
  0.00000000E+00  0.00000000E+00  0.00000000E+00
  0.00000000E+00  0.00000000E+00  0.00000000E+00
  0.00000000E+00  0.00000000E+00  0.00000000E+00
  0.00000000E+00  0.00000000E+00  0.00000000E+00
  0.00000000E+00  0.00000000E+00  0.00000000E+00
  0.00000000E+00  0.00000000E+00  0.00000000E+00
  0.00000000E+00  0.00000000E+00  0.00000000E+00
  0.00000000E+00  0.00000000E+00  0.00000000E+00
  0.00000000E+00  0.00000000E+00  0.00000000E+00
  0.00000000E+00  0.00000000E+00  0.00000000E+00
  0.00000000E+00  0.00000000E+00  0.00000000E+00
  0.00000000E+00  0.00000000E+00  0.00000000E+00
  0.00000000E+00  0.00000000E+00  0.00000000E+00
  0.00000000E+00  0.00000000E+00  0.00000000E+00
  0.00000000E+00  0.00000000E+00  0.00000000E+00
  0.00000000E+00  0.00000000E+00  0.00000000E+00
  0.00000000E+00  0.00000000E+00  0.00000000E+00
  0.00000000E+00  0.00000000E+00  0.00000000E+00
  0.00000000E+00  0.00000000E+00  0.00000000E+00
  0.00000000E+00  0.00000000E+00  0.00000000E+00
  0.00000000E+00  0.00000000E+00  0.00000000E+00
  0.00000000E+00  0.00000000E+00  0.00000000E+00
  0.00000000E+00  0.00000000E+00  0.00000000E+00
  0.00000000E+00  0.00000000E+00  0.00000000E+00
  0.00000000E+00  0.00000000E+00  0.00000000E+00
  0.00000000E+00  0.00000000E+00  0.00000000E+00
  0.00000000E+00  0.00000000E+00  0.00000000E+00
  0.00000000E+00  0.00000000E+00  0.00000000E+00
  0.00000000E+00  0.00000000E+00  0.00000000E+00
  0.00000000E+00  0.00000000E+00  0.00000000E+00
  0.00000000E+00  0.00000000E+00  0.00000000E+00
  0.00000000E+00  0.00000000E+00  0.00000000E+00
  0.00000000E+00  0.00000000E+00  0.00000000E+00
  0.00000000E+00  0.00000000E+00  0.00000000E+00
  0.00000000E+00  0.00000000E+00  0.00000000E+00
  0.00000000E+00  0.00000000E+00  0.00000000E+00
  0.00000000E+00  0.00000000E+00  0.00000000E+00
  0.00000000E+00  0.00000000E+00  0.00000000E+00
  0.00000000E+00  0.00000000E+00  0.00000000E+00
  0.00000000E+00  0.00000000E+00  0.00000000E+00
  0.00000000E+00  0.00000000E+00  0.00000000E+00
  0.00000000E+00  0.00000000E+00  0.00000000E+00
  0.00000000E+00  0.00000000E+00  0.00000000E+00
  0.00000000E+00  0.00000000E+00  0.00000000E+00
  0.00000000E+00  0.00000000E+00  0.00000000E+00
  0.00000000E+00  0.00000000E+00  0.00000000E+00
  0.00000000E+00  0.00000000E+00  0.00000000E+00
  0.00000000E+00  0.00000000E+00  0.00000000E+00
  0.00000000E+00  0.00000000E+00  0.00000000E+00
  0.00000000E+00  0.00000000E+00  0.00000000E+00
  0.00000000E+00  0.00000000E+00  0.00000000E+00
  0.00000000E+00  0.00000000E+00  0.00000000E+00
  0.00000000E+00  0.00000000E+00  0.00000000E+00
  0.00000000E+00  0.00000000E+00  0.00000000E+00
  0.00000000E+00  0.00000000E+00  0.00000000E+00
  0.00000000E+00  0.00000000E+00  0.00000000E+00
  0.00000000E+00  0.00000000E+00  0.00000000E+00
  0.00000000E+00  0.00000000E+00  0.00000000E+00
  0.00000000E+00  0.00000000E+00  0.00000000E+00
  0.00000000E+00  0.00000000E+00  0.00000000E+00
  0.00000000E+00  0.00000000E+00  0.00000000E+00
  0.00000000E+00  0.00000000E+00  0.00000000E+00
