Bi Pd Pb O
 1.0000000000000000
    10.2339687200000000    0.0000000000000000    0.0000000000000006
    -0.0000000000000007   11.8021790400000004    0.0000000000000007
     0.0000000000000000    0.0000000000000000   38.4925125199999982
Bi Pd Pb O
12 48 4 1
Selective dynamics
Cartesian
  4.2779322504245032  2.9440989193986273 22.8686465467459250   T   T   T
  2.5601963404712542  0.0000000000000000 15.6330529800934421   F   F   F
  2.5601963404712542  0.0000000000000000 20.4516486648180305   F   F   F
  0.0036351056893443  4.4191631894790389 15.6491982795448301   F   F   F
  0.0036351056893443  4.4191631894790389 20.4355033653666425   F   F   F
  0.0036351056893445  1.4819263305209611 15.6491982795448301   F   F   F
  0.0036351056893445  1.4819263305209611 20.4355033653666425   F   F   F
  3.4212824174022103  4.4081543529141074 18.0423508224557345   F   F   F
  1.7275690619140436  4.4116207865346215 22.7824090425716470   T   T   T
  1.7376944155258280  1.4801393655852508 22.8169971933244717   T   T   T
  3.4212824174022107  1.4929351670858926 18.0423508224557345   F   F   F
  0.7877662919619814  0.0000000000000000 18.0423508224557345   F   F   F
  4.3536056937011463 -0.0157118781353347 22.7836226224595642   T   T   T
  2.5530200257555720  2.9505447600000001 15.6423044630150603   F   F   F
  2.5530200257555720  2.9505447600000001 20.4423971818964141   F   F   F
  0.8246929584260778  2.9505447600000001 18.0423508224557345   F   F   F
  4.2981489653208813  8.8269770625198749 22.8693921985819664   T   T   T
  2.5601963404712538  5.9010895200000002 15.6330529800934421   F   F   F
  2.5601963404712538  5.9010895200000002 20.4516486648180305   F   F   F
  0.0036351056893439 10.3202527094790391 15.6491982795448301   F   F   F
  0.0036351056893439 10.3202527094790391 20.4355033653666425   F   F   F
  0.0036351056893441  7.3830158505209615 15.6491982795448301   F   F   F
  0.0036351056893441  7.3830158505209615 20.4355033653666425   F   F   F
  3.4212824174022098 10.3092438729141076 18.0423508224557345   F   F   F
  1.7557666114008197 10.2535091509346010 22.8141674731601718   T   T   T
  1.7396803684606017  7.3184501012884269 22.7678007593282139   T   T   T
  3.4212824174022103  7.3940246870858930 18.0423508224557345   F   F   F
  0.7877662919619811  5.9010895200000002 18.0423508224557345   F   F   F
  4.3247527700072705  5.8852822570289343 22.7922576595670883   T   T   T
  2.5530200257555715  8.8516342800000007 15.6423044630150603   F   F   F
  2.5530200257555715  8.8516342800000007 20.4423971818964141   F   F   F
  0.8246929584260775  8.8516342800000007 18.0423508224557345   F   F   F
  9.3658900127517200  3.0012285940297692 22.8520538444723691   T   T   T
  7.6771807004712542  0.0000000000000000 15.6330529800934421   F   F   F
  7.6771807004712542  0.0000000000000000 20.4516486648180305   F   F   F
  5.1206194656893445  4.4191631894790389 15.6491982795448301   F   F   F
  5.1206194656893445  4.4191631894790389 20.4355033653666425   F   F   F
  5.1206194656893445  1.4819263305209611 15.6491982795448301   F   F   F
  5.1206194656893445  1.4819263305209611 20.4355033653666425   F   F   F
  8.5382667774022103  4.4081543529141074 18.0423508224557345   F   F   F
  6.8286209214147684  4.4483391053264487 22.7835915726469587   T   T   T
  6.8389872728166683  1.4605332820555987 22.7788379209383613   T   T   T
  8.5382667774022103  1.4929351670858926 18.0423508224557345   F   F   F
  5.9047506519619812  0.0000000000000000 18.0423508224557345   F   F   F
  9.3576365621041919 -0.0117569660651498 22.9191594933368954   T   T   T
  7.6700043857555720  2.9505447600000001 15.6423044630150603   F   F   F
  7.6700043857555720  2.9505447600000001 20.4423971818964141   F   F   F
  5.9416773184260778  2.9505447600000001 18.0423508224557345   F   F   F
  9.3761037817636179  8.7884445834794338 22.8492343253570773   T   T   T
  7.6771807004712542  5.9010895200000002 15.6330529800934421   F   F   F
  7.6771807004712542  5.9010895200000002 20.4516486648180305   F   F   F
  5.1206194656893445 10.3202527094790391 15.6491982795448301   F   F   F
  5.1206194656893445 10.3202527094790391 20.4355033653666425   F   F   F
  5.1206194656893445  7.3830158505209615 15.6491982795448301   F   F   F
  5.1206194656893445  7.3830158505209615 20.4355033653666425   F   F   F
  8.5382667774022103 10.3092438729141076 18.0423508224557345   F   F   F
  6.8456611129295206 10.3307627115152307 22.7836984731117020   T   T   T
  6.8423595521089755  7.3314973490424293 22.7841398375463662   T   T   T
  8.5382667774022103  7.3940246870858930 18.0423508224557345   F   F   F
  5.9047506519619812  5.9010895200000002 18.0423508224557345   F   F   F
  9.4510735761936235  5.8894959299169338 22.7957537559346868   T   T   T
  7.6700043857555720  8.8516342800000007 15.6423044630150603   F   F   F
  7.6700043857555720  8.8516342800000007 20.4423971818964141   F   F   F
  5.9416773184260778  8.8516342800000007 18.0423508224557345   F   F   F
  0.8992964656332869 11.7642509726188695 23.9594277690429251   T   T   T
