Cu Ag S                                 
   1.00000000000000     
     8.8942792555729042    0.0000000000000000    0.0000000000000005
    -0.0000000000000005    8.8942792555729042    0.0000000000000005
     0.0000000000000000    0.0000000000000000   35.8281553381818583
   Cu   Ag   S 
     8    24    16
Selective dynamics
Direct
  0.0000000000000000  0.0000000000000000  0.4482816066666686   F   F   F
  0.0000000000000000  0.0000000000000000  0.5517183933333314   F   F   F
  0.5000000000000000  0.0000000000000000  0.3649482733333329   F   F   F
  0.5000000000000000  0.0000000000000000  0.4683850600000028   F   F   F
  0.4997738905179716  0.4998360865636684  0.6168203194143302   T   T   T
  0.5000000000000000  0.5000000000000000  0.3850517266666671   F   F   F
  0.0000000000000000  0.5000000000000000  0.5316149399999972   F   F   F
  0.9998556280078716  0.4991574274105020  0.6366426981970505   T   T   T
  0.7189833400000012  0.8456449700000022  0.4232703999999998   F   F   F
  0.2810166599999988  0.1543550299999978  0.4232703999999998   F   F   F
  0.8456449700000022  0.2810166599999988  0.5767296000000002   F   F   F
  0.7810166599999988  0.1543550299999978  0.4933962666666645   F   F   F
  0.6543550299999978  0.7189833400000012  0.3399370666666641   F   F   F
  0.6543550299999978  0.2189833400000012  0.4100629333333359   F   F   F
  0.8495256778614504  0.9412710156593960  0.6204580038825966   T   T   T
  0.2189833400000012  0.8456449700000022  0.4933962666666645   F   F   F
  0.8456449700000022  0.7810166599999988  0.5066037333333355   F   F   F
  0.0000000000000000  0.2500000000000000  0.3750000000000000   F   F   F
  0.7500000000000000  0.5000000000000000  0.4583333333333357   F   F   F
  0.0000000000000000  0.7500000000000000  0.3750000000000000   F   F   F
  0.2189833400000012  0.3456449700000022  0.5899370666666641   F   F   F
  0.7810166599999988  0.6543550299999978  0.5899370666666641   F   F   F
  0.3456449700000022  0.7810166599999988  0.4100629333333359   F   F   F
  0.2821008820319335  0.7447474465250465  0.6462764358474402   T   T   T
  0.1543550299999978  0.2189833400000012  0.5066037333333355   F   F   F
  0.1543550299999978  0.7189833400000012  0.5767296000000002   F   F   F
  0.2500000000000000  0.5000000000000000  0.4583333333333357   F   F   F
  0.7179147036421867  0.2540737578450987  0.6462726139333199   T   T   T
  0.3456449700000022  0.2810166599999988  0.3399370666666641   F   F   F
  0.5000000000000000  0.7500000000000000  0.5416666666666643   F   F   F
  0.1547369018025577  0.0584864177979867  0.6206121408801408   T   T   T
  0.5000000000000000  0.2500000000000000  0.5416666666666643   F   F   F
  0.5123409999999993  0.7508110899999991  0.4700167499999992   F   F   F
  0.7491889100000009  0.0123409999999993  0.3633165833333365   F   F   F
  0.7508110899999991  0.9876590000000007  0.5533500833333349   F   F   F
  0.7491889100000009  0.5123409999999993  0.3866834166666635   F   F   F
  0.7508110899999991  0.4876590000000007  0.5299832500000008   F   F   F
  0.0123409999999993  0.7508110899999991  0.4466499166666651   F   F   F
  0.4876590000000007  0.2491889100000009  0.4700167499999992   F   F   F
  0.9876590000000007  0.2491889100000009  0.4466499166666651   F   F   F
  0.9912479396124283  0.2597865545209146  0.6519783877353476   T   T   T
  0.2491889100000009  0.5123409999999993  0.5299832500000008   F   F   F
  0.2508110899999991  0.4876590000000007  0.3866834166666635   F   F   F
  0.2491889100000009  0.0123409999999993  0.5533500833333349   F   F   F
  0.2508110899999991  0.9876590000000007  0.3633165833333365   F   F   F
  0.4775479895334627  0.2550765468675422  0.6145890577617763   T   T   T
  0.0089663220294582  0.7386916163488451  0.6520117773122109   T   T   T
  0.5219336598262743  0.7442202505722264  0.6145545880920835   T   T   T
 
  0.00000000E+00  0.00000000E+00  0.00000000E+00
  0.00000000E+00  0.00000000E+00  0.00000000E+00
  0.00000000E+00  0.00000000E+00  0.00000000E+00
  0.00000000E+00  0.00000000E+00  0.00000000E+00
  0.00000000E+00  0.00000000E+00  0.00000000E+00
  0.00000000E+00  0.00000000E+00  0.00000000E+00
  0.00000000E+00  0.00000000E+00  0.00000000E+00
  0.00000000E+00  0.00000000E+00  0.00000000E+00
  0.00000000E+00  0.00000000E+00  0.00000000E+00
  0.00000000E+00  0.00000000E+00  0.00000000E+00
  0.00000000E+00  0.00000000E+00  0.00000000E+00
  0.00000000E+00  0.00000000E+00  0.00000000E+00
  0.00000000E+00  0.00000000E+00  0.00000000E+00
  0.00000000E+00  0.00000000E+00  0.00000000E+00
  0.00000000E+00  0.00000000E+00  0.00000000E+00
  0.00000000E+00  0.00000000E+00  0.00000000E+00
  0.00000000E+00  0.00000000E+00  0.00000000E+00
  0.00000000E+00  0.00000000E+00  0.00000000E+00
  0.00000000E+00  0.00000000E+00  0.00000000E+00
  0.00000000E+00  0.00000000E+00  0.00000000E+00
  0.00000000E+00  0.00000000E+00  0.00000000E+00
  0.00000000E+00  0.00000000E+00  0.00000000E+00
  0.00000000E+00  0.00000000E+00  0.00000000E+00
  0.00000000E+00  0.00000000E+00  0.00000000E+00
  0.00000000E+00  0.00000000E+00  0.00000000E+00
  0.00000000E+00  0.00000000E+00  0.00000000E+00
  0.00000000E+00  0.00000000E+00  0.00000000E+00
  0.00000000E+00  0.00000000E+00  0.00000000E+00
  0.00000000E+00  0.00000000E+00  0.00000000E+00
  0.00000000E+00  0.00000000E+00  0.00000000E+00
  0.00000000E+00  0.00000000E+00  0.00000000E+00
  0.00000000E+00  0.00000000E+00  0.00000000E+00
  0.00000000E+00  0.00000000E+00  0.00000000E+00
  0.00000000E+00  0.00000000E+00  0.00000000E+00
  0.00000000E+00  0.00000000E+00  0.00000000E+00
  0.00000000E+00  0.00000000E+00  0.00000000E+00
  0.00000000E+00  0.00000000E+00  0.00000000E+00
  0.00000000E+00  0.00000000E+00  0.00000000E+00
  0.00000000E+00  0.00000000E+00  0.00000000E+00
  0.00000000E+00  0.00000000E+00  0.00000000E+00
  0.00000000E+00  0.00000000E+00  0.00000000E+00
  0.00000000E+00  0.00000000E+00  0.00000000E+00
  0.00000000E+00  0.00000000E+00  0.00000000E+00
  0.00000000E+00  0.00000000E+00  0.00000000E+00
  0.00000000E+00  0.00000000E+00  0.00000000E+00
  0.00000000E+00  0.00000000E+00  0.00000000E+00
  0.00000000E+00  0.00000000E+00  0.00000000E+00
  0.00000000E+00  0.00000000E+00  0.00000000E+00
