Pd S O                                  
   1.00000000000000     
     9.2679441447573971    0.0000000000000000   -0.5736973883365687
    -0.0000000000000008   12.8254646200000000    0.0000000000000008
     0.0000000000000000    0.0000000000000000   35.3941756256364854
   Pd   S    O 
    48    16     1
Selective dynamics
Direct
  0.0601265700000013  0.1250000000000000  0.4186012449999978   F   F   F
  0.4351265700000013  0.1250000000000000  0.5436012449999978   F   F   F
  0.0409835326715040  0.1228361243146310  0.6165810265125486   T   T   T
  0.1797230262500022  0.1250000000000000  0.4946819537500033   F   F   F
  0.3125000000000000  0.0000000000000000  0.4375000000000000   F   F   F
  0.1924662130436730  0.9940242106068311  0.5635155925411226   T   T   T
  0.3125000000000000  0.2500000000000000  0.4375000000000000   F   F   F
  0.1904892286536892  0.2554412565595641  0.5630647472497543   T   T   T
  0.4452769737499978  0.3750000000000000  0.3803180462499967   F   F   F
  0.3202769737499978  0.3750000000000000  0.5053180462499967   F   F   F
  0.4455632026101242  0.3809370974985100  0.5795300429780852   T   T   T
  0.0648734299999987  0.3750000000000000  0.4563987550000022   F   F   F
  0.1959268175000020  0.3750000000000000  0.3986422724999983   F   F   F
  0.0709268175000020  0.3750000000000000  0.5236422724999983   F   F   F
  0.2727260761953758  0.1263169395279959  0.6018189926015935   T   T   T
  0.4290731824999980  0.1250000000000000  0.4763577275000017   F   F   F
  0.0601265700000013  0.6250000000000000  0.4186012449999978   F   F   F
  0.4351265700000013  0.6250000000000000  0.5436012449999978   F   F   F
  0.0482924357732060  0.6250194106624463  0.6167390639035730   T   T   T
  0.1797230262500022  0.6250000000000000  0.4946819537500033   F   F   F
  0.3125000000000000  0.5000000000000000  0.4375000000000000   F   F   F
  0.1881143270855716  0.4999997399562019  0.5620562150433059   T   T   T
  0.3125000000000000  0.7500000000000000  0.4375000000000000   F   F   F
  0.1880891217525402  0.7500971295509160  0.5620476584222089   T   T   T
  0.4452769737499978  0.8750000000000000  0.3803180462499967   F   F   F
  0.3202769737499978  0.8750000000000000  0.5053180462499967   F   F   F
  0.4459360617950452  0.8695600190361077  0.5796028126629409   T   T   T
  0.0648734299999987  0.8750000000000000  0.4563987550000022   F   F   F
  0.1959268175000020  0.8750000000000000  0.3986422724999983   F   F   F
  0.0709268175000020  0.8750000000000000  0.5236422724999983   F   F   F
  0.2986628191078040  0.6251887144914150  0.6027681770452773   T   T   T
  0.4290731824999980  0.6250000000000000  0.4763577275000017   F   F   F
  0.5601265700000013  0.1250000000000000  0.4186012449999978   F   F   F
  0.9351265700000013  0.1250000000000000  0.5436012449999978   F   F   F
  0.5757567037409714  0.1247587227406726  0.6199880559860702   T   T   T
  0.6797230262500022  0.1250000000000000  0.4946819537500033   F   F   F
  0.8125000000000000  0.0000000000000000  0.4375000000000000   F   F   F
  0.6870925046312806  0.9979892496604705  0.5612084200611775   T   T   T
  0.8125000000000000  0.2500000000000000  0.4375000000000000   F   F   F
  0.6867231899381494  0.2520592144667475  0.5613246816013842   T   T   T
  0.9452769737499978  0.3750000000000000  0.3803180462499967   F   F   F
  0.8202769737499978  0.3750000000000000  0.5053180462499967   F   F   F
  0.9424684865350983  0.3768528683071821  0.5796221177650338   T   T   T
  0.5648734299999987  0.3750000000000000  0.4563987550000022   F   F   F
  0.6959268175000020  0.3750000000000000  0.3986422724999983   F   F   F
  0.5709268175000020  0.3750000000000000  0.5236422724999983   F   F   F
  0.7980759899724532  0.1248796397938463  0.6001224520570219   T   T   T
  0.9290731824999980  0.1250000000000000  0.4763577275000017   F   F   F
  0.5601265700000013  0.6250000000000000  0.4186012449999978   F   F   F
  0.9351265700000013  0.6250000000000000  0.5436012449999978   F   F   F
  0.5488047110690815  0.6249948533225336  0.6166020414455318   T   T   T
  0.6797230262500022  0.6250000000000000  0.4946819537500033   F   F   F
  0.8125000000000000  0.5000000000000000  0.4375000000000000   F   F   F
  0.6893084983741318  0.5000848576114123  0.5618920906156646   T   T   T
  0.8125000000000000  0.7500000000000000  0.4375000000000000   F   F   F
  0.6894277066447714  0.7501241339727827  0.5619054509784718   T   T   T
  0.9452769737499978  0.8750000000000000  0.3803180462499967   F   F   F
  0.8202769737499978  0.8750000000000000  0.5053180462499967   F   F   F
  0.9431505571577077  0.8743181784376191  0.5796221667357457   T   T   T
  0.5648734299999987  0.8750000000000000  0.4563987550000022   F   F   F
  0.6959268175000020  0.8750000000000000  0.3986422724999983   F   F   F
  0.5709268175000020  0.8750000000000000  0.5236422724999983   F   F   F
  0.7989110523960221  0.6250558279611838  0.6027478680159533   T   T   T
  0.9290731824999980  0.6250000000000000  0.4763577275000017   F   F   F
  0.3693804558412097  0.1312148789676257  0.6395512675472119   T   T   T
 
  0.00000000E+00  0.00000000E+00  0.00000000E+00
  0.00000000E+00  0.00000000E+00  0.00000000E+00
  0.00000000E+00  0.00000000E+00  0.00000000E+00
  0.00000000E+00  0.00000000E+00  0.00000000E+00
  0.00000000E+00  0.00000000E+00  0.00000000E+00
  0.00000000E+00  0.00000000E+00  0.00000000E+00
  0.00000000E+00  0.00000000E+00  0.00000000E+00
  0.00000000E+00  0.00000000E+00  0.00000000E+00
  0.00000000E+00  0.00000000E+00  0.00000000E+00
  0.00000000E+00  0.00000000E+00  0.00000000E+00
  0.00000000E+00  0.00000000E+00  0.00000000E+00
  0.00000000E+00  0.00000000E+00  0.00000000E+00
  0.00000000E+00  0.00000000E+00  0.00000000E+00
  0.00000000E+00  0.00000000E+00  0.00000000E+00
  0.00000000E+00  0.00000000E+00  0.00000000E+00
  0.00000000E+00  0.00000000E+00  0.00000000E+00
  0.00000000E+00  0.00000000E+00  0.00000000E+00
  0.00000000E+00  0.00000000E+00  0.00000000E+00
  0.00000000E+00  0.00000000E+00  0.00000000E+00
  0.00000000E+00  0.00000000E+00  0.00000000E+00
  0.00000000E+00  0.00000000E+00  0.00000000E+00
  0.00000000E+00  0.00000000E+00  0.00000000E+00
  0.00000000E+00  0.00000000E+00  0.00000000E+00
  0.00000000E+00  0.00000000E+00  0.00000000E+00
  0.00000000E+00  0.00000000E+00  0.00000000E+00
  0.00000000E+00  0.00000000E+00  0.00000000E+00
  0.00000000E+00  0.00000000E+00  0.00000000E+00
  0.00000000E+00  0.00000000E+00  0.00000000E+00
  0.00000000E+00  0.00000000E+00  0.00000000E+00
  0.00000000E+00  0.00000000E+00  0.00000000E+00
  0.00000000E+00  0.00000000E+00  0.00000000E+00
  0.00000000E+00  0.00000000E+00  0.00000000E+00
  0.00000000E+00  0.00000000E+00  0.00000000E+00
  0.00000000E+00  0.00000000E+00  0.00000000E+00
  0.00000000E+00  0.00000000E+00  0.00000000E+00
  0.00000000E+00  0.00000000E+00  0.00000000E+00
  0.00000000E+00  0.00000000E+00  0.00000000E+00
  0.00000000E+00  0.00000000E+00  0.00000000E+00
  0.00000000E+00  0.00000000E+00  0.00000000E+00
  0.00000000E+00  0.00000000E+00  0.00000000E+00
  0.00000000E+00  0.00000000E+00  0.00000000E+00
  0.00000000E+00  0.00000000E+00  0.00000000E+00
  0.00000000E+00  0.00000000E+00  0.00000000E+00
  0.00000000E+00  0.00000000E+00  0.00000000E+00
  0.00000000E+00  0.00000000E+00  0.00000000E+00
  0.00000000E+00  0.00000000E+00  0.00000000E+00
  0.00000000E+00  0.00000000E+00  0.00000000E+00
  0.00000000E+00  0.00000000E+00  0.00000000E+00
  0.00000000E+00  0.00000000E+00  0.00000000E+00
  0.00000000E+00  0.00000000E+00  0.00000000E+00
  0.00000000E+00  0.00000000E+00  0.00000000E+00
  0.00000000E+00  0.00000000E+00  0.00000000E+00
  0.00000000E+00  0.00000000E+00  0.00000000E+00
  0.00000000E+00  0.00000000E+00  0.00000000E+00
  0.00000000E+00  0.00000000E+00  0.00000000E+00
  0.00000000E+00  0.00000000E+00  0.00000000E+00
  0.00000000E+00  0.00000000E+00  0.00000000E+00
  0.00000000E+00  0.00000000E+00  0.00000000E+00
  0.00000000E+00  0.00000000E+00  0.00000000E+00
  0.00000000E+00  0.00000000E+00  0.00000000E+00
  0.00000000E+00  0.00000000E+00  0.00000000E+00
  0.00000000E+00  0.00000000E+00  0.00000000E+00
  0.00000000E+00  0.00000000E+00  0.00000000E+00
  0.00000000E+00  0.00000000E+00  0.00000000E+00
  0.00000000E+00  0.00000000E+00  0.00000000E+00
