Pd S O
 1.0000000000000000
     9.2679441447573971    0.0000000000000000   -0.5736973883365687
    -0.0000000000000008   12.8254646200000000    0.0000000000000008
     0.0000000000000000    0.0000000000000000   35.3941756256364854
Pd S O
48 16 1
Selective dynamics
Cartesian
  0.5572496923758467  1.6031830774999993 14.7815515264614490   F   F   F
  4.0327287466598731  1.6031830775000007 18.9906869590397989   F   F   F
  0.3798330916543133  1.5754303664552591 21.7998649941619291   T   T   T
  1.6656629688117677  1.6031830775000013 17.4057533190769149   F   F   F
  2.8962325452366864  0.0000000000000000 15.3056714023607849   F   F   F
  1.7837661122417638 -0.0766422754386440 19.8347524864189175   T   T   T
  2.8962325452366864  3.2063661550000013 15.3056714023607849   F   F   F
  1.7654435313403234  3.2761527984929901 19.8199293797775020   T   T   T
  4.1268021216616066  4.8095492325000002 13.2055894856446532   F   F   F
  2.9683091035669333  4.8095492325000002 17.7015736123912859   F   F   F
  4.1294548747498858  4.8856952664126654 20.2563696758228211   T   T   T
  0.6012433257188287  4.8095492325000011 16.1166399724283984   F   F   F
  1.8158388010500754  4.8095492325000011 13.9972119011629932   F   F   F
  0.6573457829553998  4.8095492325000002 18.4931960279096259   F   F   F
  2.5276100409976063  1.6200734388230214 21.1444248813399831   T   T   T
  3.9766262894232973  1.6031830775000007 16.6141309035585749   F   F   F
  0.5572496923758462  8.0159153874999998 14.7815515264614490   F   F   F
  4.0327287466598731  8.0159153875000015 18.9906869590397989   F   F   F
  0.4475715973603875  8.0161643382644439 21.8012654987142227   T   T   T
  1.6656629688117672  8.0159153875000015 17.4057533190769149   F   F   F
  2.8962325452366859  6.4127323100000000 15.3056714023607849   F   F   F
  1.7434330762576868  6.4127289748174450 19.7855956885655608   T   T   T
  2.8962325452366859  9.6190984650000004 15.3056714023607849   F   F   F
  1.7431994746390120  9.6203441966188379 19.7853072942494030   T   T   T
  4.1268021216616066 11.2222815424999993 13.2055894856446532   F   F   F
  2.9683091035669329 11.2222815424999993 17.7015736123912859   F   F   F
  4.1329105128495804 11.1525112591141227 20.2587313904881334   T   T   T
  0.6012433257188282 11.2222815425000011 16.1166399724283984   F   F   F
  1.8158388010500750 11.2222815425000011 13.9972119011629932   F   F   F
  0.6573457829553994 11.2222815424999993 18.4931960279096259   F   F   F
  2.7679903256068790  8.0183357385329241 21.1631406405699458   T   T   T
  3.9766262894232969  8.0159153875000015 16.6141309035585749   F   F   F
  5.1912217647545456  1.6031830774999993 14.4947028322931644   F   F   F
  8.6667008190385708  1.6031830775000007 18.7038382648715142   F   F   F
  5.3360809712409276  1.6000885845469039 21.6136560221144762   T   T   T
  6.2996350411904665  1.6031830775000013 17.1189046249086303   F   F   F
  7.5302046176153850  0.0000000000000000 15.0188227081925003   F   F   F
  6.3679349552041788 -0.0257888073392678 19.4693262067786570   T   T   T
  7.5302046176153850  3.2063661550000013 15.0188227081925003   F   F   F
  6.3645121672563940  3.2327765372883053 19.4736530630263012   T   T   T
  8.7607741940403052  4.8095492325000002 12.9187407914763686   F   F   F
  7.6022811759456319  4.8095492325000002 17.4147249182230013   F   F   F
  8.7347452914013157  4.8333131294192642 19.9745553233642248   T   T   T
  5.2352153980975276  4.8095492325000011 15.8297912782601138   F   F   F
  6.4498108734287740  4.8095492325000011 13.7103632069947086   F   F   F
  5.2913178553340980  4.8095492325000002 18.2063473337413413   F   F   F
  7.3965236983366296  1.6016394019343008 20.7829853538524638   T   T   T
  8.6105983618019959  1.6031830775000007 16.3272822093902903   F   F   F
  5.1912217647545456  8.0159153874999998 14.4947028322931644   F   F   F
  8.6667008190385708  8.0159153875000015 18.7038382648715142   F   F   F
  5.0862914085679689  8.0158493789702430 21.5092731166020101   T   T   T
  6.2996350411904665  8.0159153875000015 17.1189046249086303   F   F   F
  7.5302046176153850  6.4127323100000000 15.0188227081925003   F   F   F
  6.3884726614380600  6.4138206482929023 19.4922528526314061   T   T   T
  7.5302046176153850  9.6190984650000004 15.0188227081925003   F   F   F
  6.3895774770319216  9.6206905408760335 19.4926573421854634   T   T   T
  8.7607741940403052 11.2222815424999993 12.9187407914763686   F   F   F
  7.6022811759456319 11.2222815424999993 17.4147249182230013   F   F   F
  8.7410666838344806 11.2135368641745448 19.9741657545073075   T   T   T
  5.2352153980975276 11.2222815425000011 15.8297912782601138   F   F   F
  6.4498108734287740 11.2222815425000011 13.7103632069947086   F   F   F
  5.2913178553340980 11.2222815424999993 18.2063473337413413   F   F   F
  7.4042630102356881  8.0166314070409594 20.8754307142617925   T   T   T
  8.6105983618019959  8.0159153875000015 16.3272822093902903   F   F   F
  3.4233974329013748  1.6828917878168717 22.4244772823458582   T   T   T
