Hg Pd                                   
   1.00000000000000     
    10.7611006800000002    0.0000000000000000    0.0000000000000007
    -0.0000000000000007   10.7611006800000002    0.0000000000000007
     0.0000000000000000    0.0000000000000000   32.2833020400000024
   Hg   Pd
    32    32
Selective dynamics
Direct
  0.1717827149999991  0.3282172850000009  0.4739275716666640   F   F   F
  0.3282172850000009  0.0782172850000009  0.4427390950000003   F   F   F
  0.0782172850000009  0.1717827149999991  0.3905942383333354   F   F   F
  0.4217827149999991  0.4217827149999991  0.3594057616666646   F   F   F
  0.3262737399999978  0.1737262600000022  0.3587579133333350   F   F   F
  0.1737262600000022  0.4237262600000022  0.3912420866666650   F   F   F
  0.4237262600000022  0.3262737399999978  0.4420912466666636   F   F   F
  0.0762737399999978  0.0762737399999978  0.4745754200000007   F   F   F
  0.1509296324352078  0.2928933426168427  0.6441291564465814   T   T   T
  0.3273697934890620  0.0663001544984851  0.6206979988527976   T   T   T
  0.0782172850000009  0.1717827149999991  0.5572609049999997   F   F   F
  0.4217827149999991  0.4217827149999991  0.5260724283333360   F   F   F
  0.3262737399999978  0.1737262600000022  0.5254245799999993   F   F   F
  0.1737262600000022  0.4237262600000022  0.5579087533333364   F   F   F
  0.4062215773870932  0.3164559921314520  0.6054320523493004   T   T   T
  0.0761877876127528  0.0388576617445082  0.6321699180730107   T   T   T
  0.1717827149999991  0.8282172850000009  0.4739275716666640   F   F   F
  0.3282172850000009  0.5782172850000009  0.4427390950000003   F   F   F
  0.0782172850000009  0.6717827149999991  0.3905942383333354   F   F   F
  0.4217827149999991  0.9217827149999991  0.3594057616666646   F   F   F
  0.3262737399999978  0.6737262600000022  0.3587579133333350   F   F   F
  0.1737262600000022  0.9237262600000022  0.3912420866666650   F   F   F
  0.4237262600000022  0.8262737399999978  0.4420912466666636   F   F   F
  0.0762737399999978  0.5762737399999978  0.4745754200000007   F   F   F
  0.1514650460090294  0.7931595046454660  0.6441248827126174   T   T   T
  0.3272207959589437  0.5665022016697492  0.6205415653245723   T   T   T
  0.0782172850000009  0.6717827149999991  0.5572609049999997   F   F   F
  0.4217827149999991  0.9217827149999991  0.5260724283333360   F   F   F
  0.3262737399999978  0.6737262600000022  0.5254245799999993   F   F   F
  0.1737262600000022  0.9237262600000022  0.5579087533333364   F   F   F
  0.4065892305308338  0.8165596832045026  0.6054422737365499   T   T   T
  0.0767769576676045  0.5390215524782604  0.6321830594577662   T   T   T
  0.6717827149999991  0.3282172850000009  0.4739275716666640   F   F   F
  0.8282172850000009  0.0782172850000009  0.4427390950000003   F   F   F
  0.5782172850000009  0.1717827149999991  0.3905942383333354   F   F   F
  0.9217827149999991  0.4217827149999991  0.3594057616666646   F   F   F
  0.8262737399999978  0.1737262600000022  0.3587579133333350   F   F   F
  0.6737262600000022  0.4237262600000022  0.3912420866666650   F   F   F
  0.9237262600000022  0.3262737399999978  0.4420912466666636   F   F   F
  0.5762737399999978  0.0762737399999978  0.4745754200000007   F   F   F
  0.6506584854873196  0.2924047384704380  0.6442202456190032   T   T   T
  0.8273712339339880  0.0661955636346789  0.6205511426480967   T   T   T
  0.5782172850000009  0.1717827149999991  0.5572609049999997   F   F   F
  0.9217827149999991  0.4217827149999991  0.5260724283333360   F   F   F
  0.8262737399999978  0.1737262600000022  0.5254245799999993   F   F   F
  0.6737262600000022  0.4237262600000022  0.5579087533333364   F   F   F
  0.9061833944264919  0.3161304216783805  0.6054177518382389   T   T   T
  0.5760462156912993  0.0386832980787162  0.6321450038820302   T   T   T
  0.6717827149999991  0.8282172850000009  0.4739275716666640   F   F   F
  0.8282172850000009  0.5782172850000009  0.4427390950000003   F   F   F
  0.5782172850000009  0.6717827149999991  0.3905942383333354   F   F   F
  0.9217827149999991  0.9217827149999991  0.3594057616666646   F   F   F
  0.8262737399999978  0.6737262600000022  0.3587579133333350   F   F   F
  0.6737262600000022  0.9237262600000022  0.3912420866666650   F   F   F
  0.9237262600000022  0.8262737399999978  0.4420912466666636   F   F   F
  0.5762737399999978  0.5762737399999978  0.4745754200000007   F   F   F
  0.6510814939056573  0.7926760237165169  0.6442165063357805   T   T   T
  0.8272078770068489  0.5663773027705119  0.6204405522967917   T   T   T
  0.5782172850000009  0.6717827149999991  0.5572609049999997   F   F   F
  0.9217827149999991  0.9217827149999991  0.5260724283333360   F   F   F
  0.8262737399999978  0.6737262600000022  0.5254245799999993   F   F   F
  0.6737262600000022  0.9237262600000022  0.5579087533333364   F   F   F
  0.9065402677509695  0.8161915270801572  0.6054603036671509   T   T   T
  0.5766902563137037  0.5387484328168739  0.6321437993996781   T   T   T
 
  0.00000000E+00  0.00000000E+00  0.00000000E+00
  0.00000000E+00  0.00000000E+00  0.00000000E+00
  0.00000000E+00  0.00000000E+00  0.00000000E+00
  0.00000000E+00  0.00000000E+00  0.00000000E+00
  0.00000000E+00  0.00000000E+00  0.00000000E+00
  0.00000000E+00  0.00000000E+00  0.00000000E+00
  0.00000000E+00  0.00000000E+00  0.00000000E+00
  0.00000000E+00  0.00000000E+00  0.00000000E+00
  0.00000000E+00  0.00000000E+00  0.00000000E+00
  0.00000000E+00  0.00000000E+00  0.00000000E+00
  0.00000000E+00  0.00000000E+00  0.00000000E+00
  0.00000000E+00  0.00000000E+00  0.00000000E+00
  0.00000000E+00  0.00000000E+00  0.00000000E+00
  0.00000000E+00  0.00000000E+00  0.00000000E+00
  0.00000000E+00  0.00000000E+00  0.00000000E+00
  0.00000000E+00  0.00000000E+00  0.00000000E+00
  0.00000000E+00  0.00000000E+00  0.00000000E+00
  0.00000000E+00  0.00000000E+00  0.00000000E+00
  0.00000000E+00  0.00000000E+00  0.00000000E+00
  0.00000000E+00  0.00000000E+00  0.00000000E+00
  0.00000000E+00  0.00000000E+00  0.00000000E+00
  0.00000000E+00  0.00000000E+00  0.00000000E+00
  0.00000000E+00  0.00000000E+00  0.00000000E+00
  0.00000000E+00  0.00000000E+00  0.00000000E+00
  0.00000000E+00  0.00000000E+00  0.00000000E+00
  0.00000000E+00  0.00000000E+00  0.00000000E+00
  0.00000000E+00  0.00000000E+00  0.00000000E+00
  0.00000000E+00  0.00000000E+00  0.00000000E+00
  0.00000000E+00  0.00000000E+00  0.00000000E+00
  0.00000000E+00  0.00000000E+00  0.00000000E+00
  0.00000000E+00  0.00000000E+00  0.00000000E+00
  0.00000000E+00  0.00000000E+00  0.00000000E+00
  0.00000000E+00  0.00000000E+00  0.00000000E+00
  0.00000000E+00  0.00000000E+00  0.00000000E+00
  0.00000000E+00  0.00000000E+00  0.00000000E+00
  0.00000000E+00  0.00000000E+00  0.00000000E+00
  0.00000000E+00  0.00000000E+00  0.00000000E+00
  0.00000000E+00  0.00000000E+00  0.00000000E+00
  0.00000000E+00  0.00000000E+00  0.00000000E+00
  0.00000000E+00  0.00000000E+00  0.00000000E+00
  0.00000000E+00  0.00000000E+00  0.00000000E+00
  0.00000000E+00  0.00000000E+00  0.00000000E+00
  0.00000000E+00  0.00000000E+00  0.00000000E+00
  0.00000000E+00  0.00000000E+00  0.00000000E+00
  0.00000000E+00  0.00000000E+00  0.00000000E+00
  0.00000000E+00  0.00000000E+00  0.00000000E+00
  0.00000000E+00  0.00000000E+00  0.00000000E+00
  0.00000000E+00  0.00000000E+00  0.00000000E+00
  0.00000000E+00  0.00000000E+00  0.00000000E+00
  0.00000000E+00  0.00000000E+00  0.00000000E+00
  0.00000000E+00  0.00000000E+00  0.00000000E+00
  0.00000000E+00  0.00000000E+00  0.00000000E+00
  0.00000000E+00  0.00000000E+00  0.00000000E+00
  0.00000000E+00  0.00000000E+00  0.00000000E+00
  0.00000000E+00  0.00000000E+00  0.00000000E+00
  0.00000000E+00  0.00000000E+00  0.00000000E+00
  0.00000000E+00  0.00000000E+00  0.00000000E+00
  0.00000000E+00  0.00000000E+00  0.00000000E+00
  0.00000000E+00  0.00000000E+00  0.00000000E+00
  0.00000000E+00  0.00000000E+00  0.00000000E+00
  0.00000000E+00  0.00000000E+00  0.00000000E+00
  0.00000000E+00  0.00000000E+00  0.00000000E+00
  0.00000000E+00  0.00000000E+00  0.00000000E+00
  0.00000000E+00  0.00000000E+00  0.00000000E+00
