Cd As Pd                                
   1.00000000000000     
     8.1355300400000008    0.0000000000000000    0.0000000000000005
    -0.0000000000000009   14.4600236199999994    0.0000000000000009
     0.0000000000000000    0.0000000000000000   28.4743551400000037
   Cd   As   Pd
     8     8    40
Selective dynamics
Direct
  0.2500000000000000  0.0000000000000000  0.3894352696436414   F   F   F
  0.0000000000000000  0.2500000000000000  0.4608638410722179   F   F   F
  0.0000000000000000  0.0000000000000000  0.4608638410722179   F   F   F
  0.0000000000000000  0.1452314949999973  0.3894352696436414   F   F   F
  0.2500000000000000  0.1452314949999973  0.4608638410722179   F   F   F
  0.0000000000000000  0.3547685050000027  0.3894352696436414   F   F   F
  0.2500000000000000  0.3547685050000027  0.4608638410722179   F   F   F
  0.2500000000000000  0.0000000000000000  0.5322924125007873   F   F   F
  0.0000400115151962  0.2499812799800054  0.6035740580341340   T   T   T
  0.0001319427235913  0.0000195179210323  0.6015442132432440   T   T   T
  0.0000000000000000  0.1452314949999973  0.5322924125007873   F   F   F
  0.2500093876531437  0.1490906432986421  0.6025711943215768   T   T   T
  0.0000000000000000  0.3547685050000027  0.5322924125007873   F   F   F
  0.2499967931585800  0.3509259472745683  0.6025762482428547   T   T   T
  0.2500000000000000  0.5000000000000000  0.3894352696436414   F   F   F
  0.0000000000000000  0.7500000000000000  0.4608638410722179   F   F   F
  0.0000000000000000  0.5000000000000000  0.4608638410722179   F   F   F
  0.0000000000000000  0.6452314949999973  0.3894352696436414   F   F   F
  0.2500000000000000  0.6452314949999973  0.4608638410722179   F   F   F
  0.0000000000000000  0.8547685050000027  0.3894352696436414   F   F   F
  0.2500000000000000  0.8547685050000027  0.4608638410722179   F   F   F
  0.2500000000000000  0.5000000000000000  0.5322924125007873   F   F   F
  0.0000095973636078  0.7499969820839496  0.6035590479423121   T   T   T
  0.0001313322188494  0.4999960305171385  0.6015332307226160   T   T   T
  0.0000000000000000  0.6452314949999973  0.5322924125007873   F   F   F
  0.2500353920293179  0.6490789886304071  0.6025575099966929   T   T   T
  0.0000000000000000  0.8547685050000027  0.5322924125007873   F   F   F
  0.2500505828490915  0.8509443427009629  0.6025695078658941   T   T   T
  0.7500000000000000  0.0000000000000000  0.3894352696436414   F   F   F
  0.5000000000000000  0.2500000000000000  0.4608638410722179   F   F   F
  0.5000000000000000  0.0000000000000000  0.4608638410722179   F   F   F
  0.5000000000000000  0.1452314949999973  0.3894352696436414   F   F   F
  0.7500000000000000  0.1452314949999973  0.4608638410722179   F   F   F
  0.5000000000000000  0.3547685050000027  0.3894352696436414   F   F   F
  0.7500000000000000  0.3547685050000027  0.4608638410722179   F   F   F
  0.7500000000000000  0.0000000000000000  0.5322924125007873   F   F   F
  0.5000333006699833  0.2499864479748126  0.6034974797022272   T   T   T
  0.4998839253126803  0.0000198102742957  0.6015216321741690   T   T   T
  0.5000000000000000  0.1452314949999973  0.5322924125007873   F   F   F
  0.7498738844343436  0.1491449539846812  0.6025285848132640   T   T   T
  0.5000000000000000  0.3547685050000027  0.5322924125007873   F   F   F
  0.7498676278297012  0.3508740834397628  0.6025344888166302   T   T   T
  0.7500000000000000  0.5000000000000000  0.3894352696436414   F   F   F
  0.5000000000000000  0.7500000000000000  0.4608638410722179   F   F   F
  0.5000000000000000  0.5000000000000000  0.4608638410722179   F   F   F
  0.5000000000000000  0.6452314949999973  0.3894352696436414   F   F   F
  0.7500000000000000  0.6452314949999973  0.4608638410722179   F   F   F
  0.5000000000000000  0.8547685050000027  0.3894352696436414   F   F   F
  0.7500000000000000  0.8547685050000027  0.4608638410722179   F   F   F
  0.7500000000000000  0.5000000000000000  0.5322924125007873   F   F   F
  0.5000184986389229  0.7499813394132460  0.6034848205028780   T   T   T
  0.4998826422250318  0.4999973151900221  0.6015093540800933   T   T   T
  0.5000000000000000  0.6452314949999973  0.5322924125007873   F   F   F
  0.7499246758388409  0.6491403113435936  0.6025182654600201   T   T   T
  0.5000000000000000  0.8547685050000027  0.5322924125007873   F   F   F
  0.7499315080688334  0.8508788093989850  0.6025299332827814   T   T   T
 
  0.00000000E+00  0.00000000E+00  0.00000000E+00
  0.00000000E+00  0.00000000E+00  0.00000000E+00
  0.00000000E+00  0.00000000E+00  0.00000000E+00
  0.00000000E+00  0.00000000E+00  0.00000000E+00
  0.00000000E+00  0.00000000E+00  0.00000000E+00
  0.00000000E+00  0.00000000E+00  0.00000000E+00
  0.00000000E+00  0.00000000E+00  0.00000000E+00
  0.00000000E+00  0.00000000E+00  0.00000000E+00
  0.00000000E+00  0.00000000E+00  0.00000000E+00
  0.00000000E+00  0.00000000E+00  0.00000000E+00
  0.00000000E+00  0.00000000E+00  0.00000000E+00
  0.00000000E+00  0.00000000E+00  0.00000000E+00
  0.00000000E+00  0.00000000E+00  0.00000000E+00
  0.00000000E+00  0.00000000E+00  0.00000000E+00
  0.00000000E+00  0.00000000E+00  0.00000000E+00
  0.00000000E+00  0.00000000E+00  0.00000000E+00
  0.00000000E+00  0.00000000E+00  0.00000000E+00
  0.00000000E+00  0.00000000E+00  0.00000000E+00
  0.00000000E+00  0.00000000E+00  0.00000000E+00
  0.00000000E+00  0.00000000E+00  0.00000000E+00
  0.00000000E+00  0.00000000E+00  0.00000000E+00
  0.00000000E+00  0.00000000E+00  0.00000000E+00
  0.00000000E+00  0.00000000E+00  0.00000000E+00
  0.00000000E+00  0.00000000E+00  0.00000000E+00
  0.00000000E+00  0.00000000E+00  0.00000000E+00
  0.00000000E+00  0.00000000E+00  0.00000000E+00
  0.00000000E+00  0.00000000E+00  0.00000000E+00
  0.00000000E+00  0.00000000E+00  0.00000000E+00
  0.00000000E+00  0.00000000E+00  0.00000000E+00
  0.00000000E+00  0.00000000E+00  0.00000000E+00
  0.00000000E+00  0.00000000E+00  0.00000000E+00
  0.00000000E+00  0.00000000E+00  0.00000000E+00
  0.00000000E+00  0.00000000E+00  0.00000000E+00
  0.00000000E+00  0.00000000E+00  0.00000000E+00
  0.00000000E+00  0.00000000E+00  0.00000000E+00
  0.00000000E+00  0.00000000E+00  0.00000000E+00
  0.00000000E+00  0.00000000E+00  0.00000000E+00
  0.00000000E+00  0.00000000E+00  0.00000000E+00
  0.00000000E+00  0.00000000E+00  0.00000000E+00
  0.00000000E+00  0.00000000E+00  0.00000000E+00
  0.00000000E+00  0.00000000E+00  0.00000000E+00
  0.00000000E+00  0.00000000E+00  0.00000000E+00
  0.00000000E+00  0.00000000E+00  0.00000000E+00
  0.00000000E+00  0.00000000E+00  0.00000000E+00
  0.00000000E+00  0.00000000E+00  0.00000000E+00
  0.00000000E+00  0.00000000E+00  0.00000000E+00
  0.00000000E+00  0.00000000E+00  0.00000000E+00
  0.00000000E+00  0.00000000E+00  0.00000000E+00
  0.00000000E+00  0.00000000E+00  0.00000000E+00
  0.00000000E+00  0.00000000E+00  0.00000000E+00
  0.00000000E+00  0.00000000E+00  0.00000000E+00
  0.00000000E+00  0.00000000E+00  0.00000000E+00
  0.00000000E+00  0.00000000E+00  0.00000000E+00
  0.00000000E+00  0.00000000E+00  0.00000000E+00
  0.00000000E+00  0.00000000E+00  0.00000000E+00
  0.00000000E+00  0.00000000E+00  0.00000000E+00
