Cd Au H O                               
   1.00000000000000     
     9.3574772700000004    0.0000000000000000    0.0000000000000006
    -0.0000000000000006    9.9414709200000004    0.0000000000000006
     0.0000000000000000    0.0000000000000000   31.2404451600000002
   Cd   Au   H    O 
    24    24     1     1
Selective dynamics
Direct
  0.0000000000000000  0.1250000000000000  0.3843074183333357   F   F   F
  0.0000000000000000  0.3750000000000000  0.4490259150000000   F   F   F
  0.1666666666666643  0.1250000000000000  0.4684567716666663   F   F   F
  0.1666666666666643  0.3750000000000000  0.3648765616666694   F   F   F
  0.0000000000000000  0.1250000000000000  0.5509740850000000   F   F   F
  0.0167612991577855  0.3889309172044051  0.6549496382456041   T   T   T
  0.1591766369151557  0.1401032542927680  0.6323027385262350   T   T   T
  0.1666666666666643  0.3750000000000000  0.5315432283333337   F   F   F
  0.0000000000000000  0.6250000000000000  0.3843074183333357   F   F   F
  0.0000000000000000  0.8750000000000000  0.4490259150000000   F   F   F
  0.1666666666666643  0.6250000000000000  0.4684567716666663   F   F   F
  0.1666666666666643  0.8750000000000000  0.3648765616666694   F   F   F
  0.0000000000000000  0.6250000000000000  0.5509740850000000   F   F   F
  0.0055591847228413  0.8857863920526796  0.6347308862821777   T   T   T
  0.1622173923356911  0.6334864551669668  0.6319154635975295   T   T   T
  0.1666666666666643  0.8750000000000000  0.5315432283333337   F   F   F
  0.3333333333333357  0.1250000000000000  0.3843074183333357   F   F   F
  0.3333333333333357  0.3750000000000000  0.4490259150000000   F   F   F
  0.5000000000000000  0.1250000000000000  0.4684567716666663   F   F   F
  0.5000000000000000  0.3750000000000000  0.3648765616666694   F   F   F
  0.3333333333333357  0.1250000000000000  0.5509740850000000   F   F   F
  0.3327303488584121  0.3836809138692416  0.6239056310370330   T   T   T
  0.5051758639982111  0.1414576197103514  0.6322098898961954   T   T   T
  0.5000000000000000  0.3750000000000000  0.5315432283333337   F   F   F
  0.3333333333333357  0.6250000000000000  0.3843074183333357   F   F   F
  0.3333333333333357  0.8750000000000000  0.4490259150000000   F   F   F
  0.5000000000000000  0.6250000000000000  0.4684567716666663   F   F   F
  0.5000000000000000  0.8750000000000000  0.3648765616666694   F   F   F
  0.3333333333333357  0.6250000000000000  0.5509740850000000   F   F   F
  0.3325130204984035  0.8861610375968496  0.6227610258872289   T   T   T
  0.5025684415889273  0.6328947522844288  0.6319612992091237   T   T   T
  0.5000000000000000  0.8750000000000000  0.5315432283333337   F   F   F
  0.6666666666666643  0.1250000000000000  0.3843074183333357   F   F   F
  0.6666666666666643  0.3750000000000000  0.4490259150000000   F   F   F
  0.8333333333333357  0.1250000000000000  0.4684567716666663   F   F   F
  0.8333333333333357  0.3750000000000000  0.3648765616666694   F   F   F
  0.6666666666666643  0.1250000000000000  0.5509740850000000   F   F   F
  0.6511400870670485  0.3885217918115416  0.6546558255070991   T   T   T
  0.8322821574119246  0.1285158840892393  0.6303461250029940   T   T   T
  0.8333333333333357  0.3750000000000000  0.5315432283333337   F   F   F
  0.6666666666666643  0.6250000000000000  0.3843074183333357   F   F   F
  0.6666666666666643  0.8750000000000000  0.4490259150000000   F   F   F
  0.8333333333333357  0.6250000000000000  0.4684567716666663   F   F   F
  0.8333333333333357  0.8750000000000000  0.3648765616666694   F   F   F
  0.6666666666666643  0.6250000000000000  0.5509740850000000   F   F   F
  0.6577221440430137  0.8868084309758615  0.6343822134033061   T   T   T
  0.8329537229656694  0.6465675069953676  0.6295677665552333   T   T   T
  0.8333333333333357  0.8750000000000000  0.5315432283333337   F   F   F
  0.8343970224296058  0.3036863917554982  0.7185919305700423   T   T   T
  0.8340830227592804  0.3881086100031297  0.7024694428336318   T   T   T
 
  0.00000000E+00  0.00000000E+00  0.00000000E+00
  0.00000000E+00  0.00000000E+00  0.00000000E+00
  0.00000000E+00  0.00000000E+00  0.00000000E+00
  0.00000000E+00  0.00000000E+00  0.00000000E+00
  0.00000000E+00  0.00000000E+00  0.00000000E+00
  0.00000000E+00  0.00000000E+00  0.00000000E+00
  0.00000000E+00  0.00000000E+00  0.00000000E+00
  0.00000000E+00  0.00000000E+00  0.00000000E+00
  0.00000000E+00  0.00000000E+00  0.00000000E+00
  0.00000000E+00  0.00000000E+00  0.00000000E+00
  0.00000000E+00  0.00000000E+00  0.00000000E+00
  0.00000000E+00  0.00000000E+00  0.00000000E+00
  0.00000000E+00  0.00000000E+00  0.00000000E+00
  0.00000000E+00  0.00000000E+00  0.00000000E+00
  0.00000000E+00  0.00000000E+00  0.00000000E+00
  0.00000000E+00  0.00000000E+00  0.00000000E+00
  0.00000000E+00  0.00000000E+00  0.00000000E+00
  0.00000000E+00  0.00000000E+00  0.00000000E+00
  0.00000000E+00  0.00000000E+00  0.00000000E+00
  0.00000000E+00  0.00000000E+00  0.00000000E+00
  0.00000000E+00  0.00000000E+00  0.00000000E+00
  0.00000000E+00  0.00000000E+00  0.00000000E+00
  0.00000000E+00  0.00000000E+00  0.00000000E+00
  0.00000000E+00  0.00000000E+00  0.00000000E+00
  0.00000000E+00  0.00000000E+00  0.00000000E+00
  0.00000000E+00  0.00000000E+00  0.00000000E+00
  0.00000000E+00  0.00000000E+00  0.00000000E+00
  0.00000000E+00  0.00000000E+00  0.00000000E+00
  0.00000000E+00  0.00000000E+00  0.00000000E+00
  0.00000000E+00  0.00000000E+00  0.00000000E+00
  0.00000000E+00  0.00000000E+00  0.00000000E+00
  0.00000000E+00  0.00000000E+00  0.00000000E+00
  0.00000000E+00  0.00000000E+00  0.00000000E+00
  0.00000000E+00  0.00000000E+00  0.00000000E+00
  0.00000000E+00  0.00000000E+00  0.00000000E+00
  0.00000000E+00  0.00000000E+00  0.00000000E+00
  0.00000000E+00  0.00000000E+00  0.00000000E+00
  0.00000000E+00  0.00000000E+00  0.00000000E+00
  0.00000000E+00  0.00000000E+00  0.00000000E+00
  0.00000000E+00  0.00000000E+00  0.00000000E+00
  0.00000000E+00  0.00000000E+00  0.00000000E+00
  0.00000000E+00  0.00000000E+00  0.00000000E+00
  0.00000000E+00  0.00000000E+00  0.00000000E+00
  0.00000000E+00  0.00000000E+00  0.00000000E+00
  0.00000000E+00  0.00000000E+00  0.00000000E+00
  0.00000000E+00  0.00000000E+00  0.00000000E+00
  0.00000000E+00  0.00000000E+00  0.00000000E+00
  0.00000000E+00  0.00000000E+00  0.00000000E+00
  0.00000000E+00  0.00000000E+00  0.00000000E+00
  0.00000000E+00  0.00000000E+00  0.00000000E+00
