Cd Au H O
 1.0000000000000000
     9.3574772700000004    0.0000000000000000    0.0000000000000006
    -0.0000000000000006    9.9414709200000004    0.0000000000000006
     0.0000000000000000    0.0000000000000000   31.2404451600000002
Cd Au H O
24 24 1 1
Selective dynamics
Cartesian
 -0.0000000000000001  1.2426838650000001 12.0059348270236796   F   F   F
 -0.0000000000000002  3.7280515950000002 14.0277694729763223   F   F   F
  1.5595795450000001  1.2426838650000001 14.6347980850831423   F   F   F
  1.5595795449999998  3.7280515950000002 11.3989062149168596   F   F   F
 -0.0000000000000001  1.2426838650000001 17.2126756870236797   F   F   F
  0.1568434758846704  3.8665454032765076 20.4609182561735814   T   T   T
  1.4894917618486065  1.3928324283489211 19.7534190274466361   T   T   T
  1.5595795449999998  3.7280515950000002 16.6056470749168632   F   F   F
 -0.0000000000000004  6.2134193250000003 12.0059348270236796   F   F   F
 -0.0000000000000005  8.6987870550000004 14.0277694729763223   F   F   F
  1.5595795449999998  6.2134193250000003 14.6347980850831423   F   F   F
  1.5595795449999996  8.6987870550000004 11.3989062149168596   F   F   F
 -0.0000000000000004  6.2134193250000003 17.2126756870236797   F   F   F
  0.0520199446837063  8.8060196579234322 19.8292754442564636   T   T   T
  1.5179455615799300  6.2977871722563172 19.7413203862745483   T   T   T
  1.5595795449999996  8.6987870550000004 16.6056470749168632   F   F   F
  3.1191590900000001  1.2426838650000001 12.0059348270236796   F   F   F
  3.1191590899999997  3.7280515950000002 14.0277694729763223   F   F   F
  4.6787386350000002  1.2426838650000001 14.6347980850831423   F   F   F
  4.6787386350000002  3.7280515950000002 11.3989062149168596   F   F   F
  3.1191590900000001  1.2426838650000001 17.2126756870236797   F   F   F
  3.1135166764817828  3.8143526477900771 19.4910896514275827   T   T   T
  4.7271716647158524  1.4062968127628857 19.7505183949117615   T   T   T
  4.6787386350000002  3.7280515950000002 16.6056470749168632   F   F   F
  3.1191590899999997  6.2134193250000003 12.0059348270236796   F   F   F
  3.1191590899999992  8.6987870550000004 14.0277694729763223   F   F   F
  4.6787386350000002  6.2134193250000003 14.6347980850831423   F   F   F
  4.6787386349999993  8.6987870550000004 11.3989062149168596   F   F   F
  3.1191590899999997  6.2134193250000003 17.2126756870236797   F   F   F
  3.1114830312928516  8.8097441857060836 19.4553316770153195   T   T   T
  4.7027727687877228  6.2919047752562669 19.7427523111848693   T   T   T
  4.6787386349999993  8.6987870550000004 16.6056470749168632   F   F   F
  6.2383181800000003  1.2426838650000001 12.0059348270236796   F   F   F
  6.2383181800000003  3.7280515950000002 14.0277694729763223   F   F   F
  7.7978977250000003  1.2426838650000001 14.6347980850831423   F   F   F
  7.7978977250000003  3.7280515950000002 11.3989062149168596   F   F   F
  6.2383181800000003  1.2426838650000001 17.2126756870236797   F   F   F
  6.0930285643156950  3.8624780950807356 20.4517394154291559   T   T   T
  7.7880613702086681  1.2776369244312455 19.6922935499744760   T   T   T
  7.7978977250000003  3.7280515950000002 16.6056470749168632   F   F   F
  6.2383181800000003  6.2134193250000003 12.0059348270236796   F   F   F
  6.2383181800000003  8.6987870550000004 14.0277694729763223   F   F   F
  7.7978977250000003  6.2134193250000003 14.6347980850831423   F   F   F
  7.7978977250000003  8.6987870550000004 11.3989062149168596   F   F   F
  6.2383181800000003  6.2134193250000003 17.2126756870236797   F   F   F
  6.1546200128581532  8.8161802281573252 19.8183827483054209   T   T   T
  7.7943455296131265  6.4278320686113197 19.6679772855725439   T   T   T
  7.7978977250000003  8.6987870550000004 16.6056470749168632   F   F   F
  7.8078511715407464  3.0190894324369921 22.4491317993918535   T   T   T
  7.8049129267628707  3.8583704601477038 21.9454581054199167   T   T   T
