Al In Cl H O                            
   1.00000000000000     
    14.5280904599999996    0.0000000000000000    0.0000000000000009
    -0.0000000000000007   11.1979029200000006    0.0000000000000007
     0.0000000000000000    0.0000000000000000   38.3577098800000016
   Al   In   Cl   H    O 
     8     8    32     1     1
Selective dynamics
Direct
  0.3750000000000000  0.5669984999999969  0.4221922199999995   F   F   F
  0.1250000000000000  0.9330015000000031  0.5471922199999995   F   F   F
  0.1269925556079556  0.4302164866523910  0.5772617309726371   T   T   T
  0.3750000000000000  0.0669984999999969  0.4528077800000005   F   F   F
  0.3074133708995674  0.7210473974574469  0.5673726277498403   T   T   T
  0.4599966764256891  0.1888662720375862  0.5703641193851610   T   T   T
  0.1250000000000000  0.3141509399999975  0.4532525600000028   F   F   F
  0.1250000000000000  0.8141509399999975  0.4217474399999972   F   F   F
  0.0023999550000013  0.4249861199999998  0.5442169825000036   F   F   F
  0.1062765120038378  0.2778060813682259  0.6114707321868380   T   T   T
  0.3450945506805709  0.1584978309809273  0.6169865657486611   T   T   T
  0.3750000000000000  0.7230112599999998  0.3878326325000003   F   F   F
  0.2523999550000013  0.0750138800000002  0.4192169825000036   F   F   F
  0.3750000000000000  0.2230112599999998  0.4871673674999997   F   F   F
  0.4976000449999987  0.0750138800000002  0.4192169825000036   F   F   F
  0.2476000449999987  0.4249861199999998  0.5442169825000036   F   F   F
  0.3750000000000000  0.4002031599999967  0.3928107174999980   F   F   F
  0.0014356048289486  0.9252849895634796  0.5797017796624715   T   T   T
  0.1250000000000000  0.0997968400000033  0.5178107174999980   F   F   F
  0.3750000000000000  0.9002031599999967  0.4821892825000020   F   F   F
  0.1305196819762244  0.5941800996460529  0.6072829271382858   T   T   T
  0.4976000449999987  0.5750138800000002  0.4557830175000035   F   F   F
  0.2523999550000013  0.5750138800000002  0.4557830175000035   F   F   F
  0.1250000000000000  0.7769887400000002  0.5128326325000003   F   F   F
  0.8750000000000000  0.5669984999999969  0.4221922199999995   F   F   F
  0.6250000000000000  0.9330015000000031  0.5471922199999995   F   F   F
  0.6270023062999783  0.4367570423121947  0.5774191613079509   T   T   T
  0.8750000000000000  0.0669984999999969  0.4528077800000005   F   F   F
  0.8515378709307910  0.7142657254199065  0.5463363770948604   T   T   T
  0.9239606916745657  0.1988372895987567  0.5754897045094367   T   T   T
  0.6250000000000000  0.3141509399999975  0.4532525600000028   F   F   F
  0.6250000000000000  0.8141509399999975  0.4217474399999972   F   F   F
  0.5023999550000013  0.4249861199999998  0.5442169825000036   F   F   F
  0.6141845829491288  0.2750338811859763  0.6100618953361518   T   T   T
  0.7449192961503144  0.9267534809640452  0.5808438327904710   T   T   T
  0.8750000000000000  0.7230112599999998  0.3878326325000003   F   F   F
  0.7523999550000013  0.0750138800000002  0.4192169825000036   F   F   F
  0.8750000000000000  0.2230112599999998  0.4871673674999997   F   F   F
  0.9976000449999987  0.0750138800000002  0.4192169825000036   F   F   F
  0.7476000449999987  0.4249861199999998  0.5442169825000036   F   F   F
  0.8750000000000000  0.4002031599999967  0.3928107174999980   F   F   F
  0.5041701770293514  0.9359890851688348  0.5810388502750286   T   T   T
  0.6250000000000000  0.0997968400000033  0.5178107174999980   F   F   F
  0.8750000000000000  0.9002031599999967  0.4821892825000020   F   F   F
  0.6292014346986647  0.5934013825024991  0.6089253878268508   T   T   T
  0.9976000449999987  0.5750138800000002  0.4557830175000035   F   F   F
  0.7523999550000013  0.5750138800000002  0.4557830175000035   F   F   F
  0.6250000000000000  0.7769887400000002  0.5128326325000003   F   F   F
  0.2505600077619263  0.9783855795170311  0.5864252318419503   T   T   T
  0.2250524615955385  0.9134560632600710  0.5724653165057987   T   T   T
 
  0.00000000E+00  0.00000000E+00  0.00000000E+00
  0.00000000E+00  0.00000000E+00  0.00000000E+00
  0.00000000E+00  0.00000000E+00  0.00000000E+00
  0.00000000E+00  0.00000000E+00  0.00000000E+00
  0.00000000E+00  0.00000000E+00  0.00000000E+00
  0.00000000E+00  0.00000000E+00  0.00000000E+00
  0.00000000E+00  0.00000000E+00  0.00000000E+00
  0.00000000E+00  0.00000000E+00  0.00000000E+00
  0.00000000E+00  0.00000000E+00  0.00000000E+00
  0.00000000E+00  0.00000000E+00  0.00000000E+00
  0.00000000E+00  0.00000000E+00  0.00000000E+00
  0.00000000E+00  0.00000000E+00  0.00000000E+00
  0.00000000E+00  0.00000000E+00  0.00000000E+00
  0.00000000E+00  0.00000000E+00  0.00000000E+00
  0.00000000E+00  0.00000000E+00  0.00000000E+00
  0.00000000E+00  0.00000000E+00  0.00000000E+00
  0.00000000E+00  0.00000000E+00  0.00000000E+00
  0.00000000E+00  0.00000000E+00  0.00000000E+00
  0.00000000E+00  0.00000000E+00  0.00000000E+00
  0.00000000E+00  0.00000000E+00  0.00000000E+00
  0.00000000E+00  0.00000000E+00  0.00000000E+00
  0.00000000E+00  0.00000000E+00  0.00000000E+00
  0.00000000E+00  0.00000000E+00  0.00000000E+00
  0.00000000E+00  0.00000000E+00  0.00000000E+00
  0.00000000E+00  0.00000000E+00  0.00000000E+00
  0.00000000E+00  0.00000000E+00  0.00000000E+00
  0.00000000E+00  0.00000000E+00  0.00000000E+00
  0.00000000E+00  0.00000000E+00  0.00000000E+00
  0.00000000E+00  0.00000000E+00  0.00000000E+00
  0.00000000E+00  0.00000000E+00  0.00000000E+00
  0.00000000E+00  0.00000000E+00  0.00000000E+00
  0.00000000E+00  0.00000000E+00  0.00000000E+00
  0.00000000E+00  0.00000000E+00  0.00000000E+00
  0.00000000E+00  0.00000000E+00  0.00000000E+00
  0.00000000E+00  0.00000000E+00  0.00000000E+00
  0.00000000E+00  0.00000000E+00  0.00000000E+00
  0.00000000E+00  0.00000000E+00  0.00000000E+00
  0.00000000E+00  0.00000000E+00  0.00000000E+00
  0.00000000E+00  0.00000000E+00  0.00000000E+00
  0.00000000E+00  0.00000000E+00  0.00000000E+00
  0.00000000E+00  0.00000000E+00  0.00000000E+00
  0.00000000E+00  0.00000000E+00  0.00000000E+00
  0.00000000E+00  0.00000000E+00  0.00000000E+00
  0.00000000E+00  0.00000000E+00  0.00000000E+00
  0.00000000E+00  0.00000000E+00  0.00000000E+00
  0.00000000E+00  0.00000000E+00  0.00000000E+00
  0.00000000E+00  0.00000000E+00  0.00000000E+00
  0.00000000E+00  0.00000000E+00  0.00000000E+00
  0.00000000E+00  0.00000000E+00  0.00000000E+00
  0.00000000E+00  0.00000000E+00  0.00000000E+00
