Au Te                                   
   1.00000000000000     
     8.5241530005360673    0.0000000000000000   -0.0770182540525434
    -4.2066496155703907   12.7802637406406916   -0.0851590815318037
     0.0000000000000000    0.0000000000000000   36.2381287890936647
   Au   Te
    12    24
Selective dynamics
Direct
  0.3333333333333357  0.0000000000000000  0.4166666666666643   F   F   F
  0.1689982407667117  0.1648797193818510  0.5811523275636077   T   T   T
  0.0000000000000000  0.3333333333333357  0.5000000000000000   F   F   F
  0.5009990320702613  0.3072815170325427  0.5813775369464125   T   T   T
  0.3333271833333313  0.4838922149999973  0.4973143441666679   F   F   F
  0.1666605166666670  0.1505588816666688  0.4139810108333322   F   F   F
  0.3348309277239707  0.0202256551495381  0.5800691361193131   T   T   T
  0.1666728166666687  0.1827744516666669  0.5026856558333321   F   F   F
  0.0000061499999973  0.3494411183333312  0.4193523225000035   F   F   F
  0.3333333333333357  0.5000000000000000  0.4166666666666643   F   F   F
  0.1689642855175819  0.6648626762224481  0.5811491572125931   T   T   T
  0.0000000000000000  0.8333333333333357  0.5000000000000000   F   F   F
  0.5009473010757262  0.8072982430003321  0.5813819449746660   T   T   T
  0.3333271833333313  0.9838922149999973  0.4973143441666679   F   F   F
  0.1666605166666670  0.6505588816666688  0.4139810108333322   F   F   F
  0.3347928908659981  0.5202051684523710  0.5800431906880306   T   T   T
  0.1666728166666687  0.6827744516666669  0.5026856558333321   F   F   F
  0.0000061499999973  0.8494411183333312  0.4193523225000035   F   F   F
  0.8333333333333357  0.0000000000000000  0.4166666666666643   F   F   F
  0.6690865757171736  0.1648698554267725  0.5811256872675798   T   T   T
  0.5000000000000000  0.3333333333333357  0.5000000000000000   F   F   F
  0.0008355009618342  0.3071736956689648  0.5812481951697208   T   T   T
  0.8333271833333313  0.4838922149999973  0.4973143441666679   F   F   F
  0.6666605166666670  0.1505588816666688  0.4139810108333322   F   F   F
  0.8346916602016421  0.0201224291791178  0.5801238007048823   T   T   T
  0.6666728166666687  0.1827744516666669  0.5026856558333321   F   F   F
  0.5000061499999973  0.3494411183333312  0.4193523225000035   F   F   F
  0.8333333333333357  0.5000000000000000  0.4166666666666643   F   F   F
  0.6690383470044594  0.6648790486383689  0.5811300924443401   T   T   T
  0.5000000000000000  0.8333333333333357  0.5000000000000000   F   F   F
  0.0008029422248796  0.8071920260764003  0.5812622170162030   T   T   T
  0.8333271833333313  0.9838922149999973  0.4973143441666679   F   F   F
  0.6666605166666670  0.6505588816666688  0.4139810108333322   F   F   F
  0.8346494611703221  0.5201492188752681  0.5801194600503194   T   T   T
  0.6666728166666687  0.6827744516666669  0.5026856558333321   F   F   F
  0.5000061499999973  0.8494411183333312  0.4193523225000035   F   F   F
 
  0.00000000E+00  0.00000000E+00  0.00000000E+00
  0.00000000E+00  0.00000000E+00  0.00000000E+00
  0.00000000E+00  0.00000000E+00  0.00000000E+00
  0.00000000E+00  0.00000000E+00  0.00000000E+00
  0.00000000E+00  0.00000000E+00  0.00000000E+00
  0.00000000E+00  0.00000000E+00  0.00000000E+00
  0.00000000E+00  0.00000000E+00  0.00000000E+00
  0.00000000E+00  0.00000000E+00  0.00000000E+00
  0.00000000E+00  0.00000000E+00  0.00000000E+00
  0.00000000E+00  0.00000000E+00  0.00000000E+00
  0.00000000E+00  0.00000000E+00  0.00000000E+00
  0.00000000E+00  0.00000000E+00  0.00000000E+00
  0.00000000E+00  0.00000000E+00  0.00000000E+00
  0.00000000E+00  0.00000000E+00  0.00000000E+00
  0.00000000E+00  0.00000000E+00  0.00000000E+00
  0.00000000E+00  0.00000000E+00  0.00000000E+00
  0.00000000E+00  0.00000000E+00  0.00000000E+00
  0.00000000E+00  0.00000000E+00  0.00000000E+00
  0.00000000E+00  0.00000000E+00  0.00000000E+00
  0.00000000E+00  0.00000000E+00  0.00000000E+00
  0.00000000E+00  0.00000000E+00  0.00000000E+00
  0.00000000E+00  0.00000000E+00  0.00000000E+00
  0.00000000E+00  0.00000000E+00  0.00000000E+00
  0.00000000E+00  0.00000000E+00  0.00000000E+00
  0.00000000E+00  0.00000000E+00  0.00000000E+00
  0.00000000E+00  0.00000000E+00  0.00000000E+00
  0.00000000E+00  0.00000000E+00  0.00000000E+00
  0.00000000E+00  0.00000000E+00  0.00000000E+00
  0.00000000E+00  0.00000000E+00  0.00000000E+00
  0.00000000E+00  0.00000000E+00  0.00000000E+00
  0.00000000E+00  0.00000000E+00  0.00000000E+00
  0.00000000E+00  0.00000000E+00  0.00000000E+00
  0.00000000E+00  0.00000000E+00  0.00000000E+00
  0.00000000E+00  0.00000000E+00  0.00000000E+00
  0.00000000E+00  0.00000000E+00  0.00000000E+00
  0.00000000E+00  0.00000000E+00  0.00000000E+00
