Au Te
 1.0000000000000000
     8.5241530005360673    0.0000000000000000   -0.0770182540525434
    -4.2066496155703907   12.7802637406406916   -0.0851590815318037
     0.0000000000000000    0.0000000000000000   36.2381287890936647
Au Te
12 24
Selective dynamics
Cartesian
  2.8413843335120212  0.0000000000000014 15.0735475774381769   F   F   F
  0.7469756529638578  2.1072062991828782 21.0328159374239050   T   T   T
 -1.4022165385234637  4.2600879135468981 18.0906780340362303   F   F   F
  2.9779667269905481  3.9271388303001054 21.0032801764558812   T   T   T
  0.8057669097638160  6.1842701297428109 17.9548611582969428   F   F   F
  0.7872912815312623  1.9241822161959123 14.9762398287251592   F   F   F
  2.7690678127710853  0.2584892071383443 20.9931095695980012   T   T   T
  0.6518765134572924  2.3359056973509840 18.1879857827492479   F   F   F
 -1.4699239225604535  4.4659496541244339 15.1667849124115648   F   F   F
  0.7380595257268259  6.3901318703203476 15.0309680366722755   F   F   F
 -1.3565668999601355  8.4971203534311144 20.9901255756235336   T   T   T
 -3.5055413463086591 10.6502197838672430 18.0480984932703272   F   F   F
  0.8741305960071277 10.3174844629000511 20.9608629342482580   T   T   T
 -1.2975578980213793 12.5744020000631558 17.9122816175310398   F   F   F
 -1.3160335262539331  8.3143140865162586 14.9336602879592579   F   F   F
  0.6655049533456090  6.6483592520657364 20.9495944891124495   T   T   T
 -1.4514482943279030  8.7260375676713302 18.1454062419833448   F   F   F
 -3.5732487303456488 10.8560815244447788 15.1242053716456635   F   F   F
  7.1034608337800549  0.0000000000000014 15.0350384504119052   F   F   F
  5.0098466280677485  2.1070802352354869 20.9933354525210802   T   T   T
  2.8598599617445699  4.2600879135468981 18.0521689070099569   F   F   F
  7.2391028297676598  3.9257608448366277 20.9601057223167189   T   T   T
  5.0678434100318501  6.1842701297428109 17.9163520312706694   F   F   F
  5.0493677817992957  1.9241822161959123 14.9377307016988876   F   F   F
  7.0303914108595631  0.2571699520114713 20.9566009016341290   T   T   T
  4.9139530137253260  2.3359056973509840 18.1494766557229745   F   F   F
  2.7921525777075802  4.4659496541244339 15.1282757853852932   F   F   F
  5.0001360259948591  6.3901318703203476 14.9924589096460039   F   F   F
  2.9060720387363581  8.4973295972246206 20.9509184787235370   T   T   T
  0.7565351539593745 10.6502197838672430 18.0095893662440574   F   F   F
  5.1354233767257433 10.3161269825985293 20.9180352536459750   T   T   T
  2.9645186022466543 12.5744020000631558 17.8737724905047699   F   F   F
  2.9460429740141008  8.3143140865162586 14.8951511609329863   F   F   F
  4.9265941972099103  6.6476442017141633 20.9138650323786912   T   T   T
  2.8106282059401306  8.7260375676713302 18.1068971149570750   F   F   F
  0.6888277699223848 10.8560815244447788 15.0856962446193918   F   F   F
