Te Pd H O                               
   1.00000000000000     
    11.4545060173354365    0.0000000000000000    0.0000000000000007
    -0.0000000000000006   10.0011441711883435    0.0000000000000006
     0.0000000000000000    0.0000000000000000   30.0034325135650306
   Te   Pd   H    O 
    16    48     1     1
Selective dynamics
Direct
  0.0000000000000000  0.2500000000000000  0.3750000000000000   F   F   F
  0.0000000000000000  0.0000000000000000  0.4583333333333357   F   F   F
  0.3740449599999991  0.2500000000000000  0.4583333333333357   F   F   F
  0.3740449599999991  0.5000000000000000  0.3750000000000000   F   F   F
  0.2500000000000000  0.2500000000000000  0.3750000000000000   F   F   F
  0.2500000000000000  0.0000000000000000  0.4583333333333357   F   F   F
  0.1259550400000009  0.2500000000000000  0.4583333333333357   F   F   F
  0.1259550400000009  0.5000000000000000  0.3750000000000000   F   F   F
  0.0000000000000000  0.2500000000000000  0.5416666666666643   F   F   F
  0.0048173601905006  0.0076412295220152  0.6272125623550764   T   T   T
  0.3735034392462993  0.2519068837053027  0.6224535374259901   T   T   T
  0.3740449599999991  0.5000000000000000  0.5416666666666643   F   F   F
  0.2500000000000000  0.2500000000000000  0.5416666666666643   F   F   F
  0.2478320495591930  0.9991921815798790  0.6216639470364598   T   T   T
  0.1245112492079343  0.2529740589120664  0.6221610557043178   T   T   T
  0.1259550400000009  0.5000000000000000  0.5416666666666643   F   F   F
  0.0000000000000000  0.7500000000000000  0.3750000000000000   F   F   F
  0.0000000000000000  0.5000000000000000  0.4583333333333357   F   F   F
  0.3740449599999991  0.7500000000000000  0.4583333333333357   F   F   F
  0.3740449599999991  0.0000000000000000  0.3750000000000000   F   F   F
  0.2500000000000000  0.7500000000000000  0.3750000000000000   F   F   F
  0.2500000000000000  0.5000000000000000  0.4583333333333357   F   F   F
  0.1259550400000009  0.7500000000000000  0.4583333333333357   F   F   F
  0.1259550400000009  0.0000000000000000  0.3750000000000000   F   F   F
  0.0000000000000000  0.7500000000000000  0.5416666666666643   F   F   F
  0.0027823944565526  0.4997140408720071  0.6273873922436337   T   T   T
  0.3726591280605334  0.7509184254871144  0.6231024136086205   T   T   T
  0.3740449599999991  0.0000000000000000  0.5416666666666643   F   F   F
  0.2500000000000000  0.7500000000000000  0.5416666666666643   F   F   F
  0.2494128388008647  0.5022783513016122  0.6215114169496232   T   T   T
  0.1259909105716162  0.7490801336225630  0.6229775136526641   T   T   T
  0.1259550400000009  0.0000000000000000  0.5416666666666643   F   F   F
  0.5000000000000000  0.2500000000000000  0.3750000000000000   F   F   F
  0.5000000000000000  0.0000000000000000  0.4583333333333357   F   F   F
  0.8740449599999991  0.2500000000000000  0.4583333333333357   F   F   F
  0.8740449599999991  0.5000000000000000  0.3750000000000000   F   F   F
  0.7500000000000000  0.2500000000000000  0.3750000000000000   F   F   F
  0.7500000000000000  0.0000000000000000  0.4583333333333357   F   F   F
  0.6259550400000009  0.2500000000000000  0.4583333333333357   F   F   F
  0.6259550400000009  0.5000000000000000  0.3750000000000000   F   F   F
  0.5000000000000000  0.2500000000000000  0.5416666666666643   F   F   F
  0.4922272977350843  0.0074549869019691  0.6274110534196495   T   T   T
  0.8755422382798201  0.2591669253898701  0.6223857451348351   T   T   T
  0.8740449599999991  0.5000000000000000  0.5416666666666643   F   F   F
  0.7500000000000000  0.2500000000000000  0.5416666666666643   F   F   F
  0.7482083653689671  0.0198050491824091  0.6207424771369432   T   T   T
  0.6228825053771132  0.2605644117459747  0.6222229633337903   T   T   T
  0.6259550400000009  0.5000000000000000  0.5416666666666643   F   F   F
  0.5000000000000000  0.7500000000000000  0.3750000000000000   F   F   F
  0.5000000000000000  0.5000000000000000  0.4583333333333357   F   F   F
  0.8740449599999991  0.7500000000000000  0.4583333333333357   F   F   F
  0.8740449599999991  0.0000000000000000  0.3750000000000000   F   F   F
  0.7500000000000000  0.7500000000000000  0.3750000000000000   F   F   F
  0.7500000000000000  0.5000000000000000  0.4583333333333357   F   F   F
  0.6259550400000009  0.7500000000000000  0.4583333333333357   F   F   F
  0.6259550400000009  0.0000000000000000  0.3750000000000000   F   F   F
  0.5000000000000000  0.7500000000000000  0.5416666666666643   F   F   F
  0.4951924336771754  0.4994408603246683  0.6277920706953068   T   T   T
  0.8774398836967094  0.7608001793443222  0.6211961072405217   T   T   T
  0.8740449599999991  0.0000000000000000  0.5416666666666643   F   F   F
  0.7500000000000000  0.7500000000000000  0.5416666666666643   F   F   F
  0.7504974400012614  0.5044087908249821  0.6210692205389279   T   T   T
  0.6214325355400447  0.7588664029640597  0.6209654141540781   T   T   T
  0.6259550400000009  0.0000000000000000  0.5416666666666643   F   F   F
  0.7502919814333993  0.6909801864032588  0.6924937741866231   T   T   T
  0.7496187074935392  0.7757604782806524  0.6763037788377346   T   T   T
 
  0.00000000E+00  0.00000000E+00  0.00000000E+00
  0.00000000E+00  0.00000000E+00  0.00000000E+00
  0.00000000E+00  0.00000000E+00  0.00000000E+00
  0.00000000E+00  0.00000000E+00  0.00000000E+00
  0.00000000E+00  0.00000000E+00  0.00000000E+00
  0.00000000E+00  0.00000000E+00  0.00000000E+00
  0.00000000E+00  0.00000000E+00  0.00000000E+00
  0.00000000E+00  0.00000000E+00  0.00000000E+00
  0.00000000E+00  0.00000000E+00  0.00000000E+00
  0.00000000E+00  0.00000000E+00  0.00000000E+00
  0.00000000E+00  0.00000000E+00  0.00000000E+00
  0.00000000E+00  0.00000000E+00  0.00000000E+00
  0.00000000E+00  0.00000000E+00  0.00000000E+00
  0.00000000E+00  0.00000000E+00  0.00000000E+00
  0.00000000E+00  0.00000000E+00  0.00000000E+00
  0.00000000E+00  0.00000000E+00  0.00000000E+00
  0.00000000E+00  0.00000000E+00  0.00000000E+00
  0.00000000E+00  0.00000000E+00  0.00000000E+00
  0.00000000E+00  0.00000000E+00  0.00000000E+00
  0.00000000E+00  0.00000000E+00  0.00000000E+00
  0.00000000E+00  0.00000000E+00  0.00000000E+00
  0.00000000E+00  0.00000000E+00  0.00000000E+00
  0.00000000E+00  0.00000000E+00  0.00000000E+00
  0.00000000E+00  0.00000000E+00  0.00000000E+00
  0.00000000E+00  0.00000000E+00  0.00000000E+00
  0.00000000E+00  0.00000000E+00  0.00000000E+00
  0.00000000E+00  0.00000000E+00  0.00000000E+00
  0.00000000E+00  0.00000000E+00  0.00000000E+00
  0.00000000E+00  0.00000000E+00  0.00000000E+00
  0.00000000E+00  0.00000000E+00  0.00000000E+00
  0.00000000E+00  0.00000000E+00  0.00000000E+00
  0.00000000E+00  0.00000000E+00  0.00000000E+00
  0.00000000E+00  0.00000000E+00  0.00000000E+00
  0.00000000E+00  0.00000000E+00  0.00000000E+00
  0.00000000E+00  0.00000000E+00  0.00000000E+00
  0.00000000E+00  0.00000000E+00  0.00000000E+00
  0.00000000E+00  0.00000000E+00  0.00000000E+00
  0.00000000E+00  0.00000000E+00  0.00000000E+00
  0.00000000E+00  0.00000000E+00  0.00000000E+00
  0.00000000E+00  0.00000000E+00  0.00000000E+00
  0.00000000E+00  0.00000000E+00  0.00000000E+00
  0.00000000E+00  0.00000000E+00  0.00000000E+00
  0.00000000E+00  0.00000000E+00  0.00000000E+00
  0.00000000E+00  0.00000000E+00  0.00000000E+00
  0.00000000E+00  0.00000000E+00  0.00000000E+00
  0.00000000E+00  0.00000000E+00  0.00000000E+00
  0.00000000E+00  0.00000000E+00  0.00000000E+00
  0.00000000E+00  0.00000000E+00  0.00000000E+00
  0.00000000E+00  0.00000000E+00  0.00000000E+00
  0.00000000E+00  0.00000000E+00  0.00000000E+00
  0.00000000E+00  0.00000000E+00  0.00000000E+00
  0.00000000E+00  0.00000000E+00  0.00000000E+00
  0.00000000E+00  0.00000000E+00  0.00000000E+00
  0.00000000E+00  0.00000000E+00  0.00000000E+00
  0.00000000E+00  0.00000000E+00  0.00000000E+00
  0.00000000E+00  0.00000000E+00  0.00000000E+00
  0.00000000E+00  0.00000000E+00  0.00000000E+00
  0.00000000E+00  0.00000000E+00  0.00000000E+00
  0.00000000E+00  0.00000000E+00  0.00000000E+00
  0.00000000E+00  0.00000000E+00  0.00000000E+00
  0.00000000E+00  0.00000000E+00  0.00000000E+00
  0.00000000E+00  0.00000000E+00  0.00000000E+00
  0.00000000E+00  0.00000000E+00  0.00000000E+00
  0.00000000E+00  0.00000000E+00  0.00000000E+00
  0.00000000E+00  0.00000000E+00  0.00000000E+00
  0.00000000E+00  0.00000000E+00  0.00000000E+00
