Ni Te                                   
   1.00000000000000     
    12.9312780400000005    0.0000000000000000    0.0000000000000008
    -0.0000000000000008   12.9312780400000005    0.0000000000000008
     0.0000000000000000    0.0000000000000000   38.7938341199999996
   Ni   Te
    32    64
Selective dynamics
Direct
  0.2500000000000000  0.0000000000000000  0.3750000000000000   F   F   F
  0.0000000000000000  0.2500000000000000  0.3750000000000000   F   F   F
  0.2500000000000000  0.2500000000000000  0.4583333333333357   F   F   F
  0.0000000000000000  0.0000000000000000  0.4583333333333357   F   F   F
  0.0687851349999988  0.3187851349999988  0.4812617116666686   F   F   F
  0.3187851349999988  0.4312148650000012  0.4354049550000028   F   F   F
  0.4312148650000012  0.0687851349999988  0.3520716216666671   F   F   F
  0.1812148650000012  0.1812148650000012  0.3979283783333329   F   F   F
  0.4312148650000012  0.1812148650000012  0.4354049550000028   F   F   F
  0.1812148650000012  0.0687851349999988  0.4812617116666686   F   F   F
  0.0687851349999988  0.4312148650000012  0.3979283783333329   F   F   F
  0.3187851349999988  0.3187851349999988  0.3520716216666671   F   F   F
  0.2500000000000000  0.0000000000000000  0.5416666666666643   F   F   F
  0.0000000000000000  0.2500000000000000  0.5416666666666643   F   F   F
  0.2432920325289345  0.2482074974126860  0.6233301548032699   T   T   T
  0.0067182880872778  0.9982326221163405  0.6233768081758981   T   T   T
  0.0724726172340624  0.3228517092916476  0.6494778830465648   T   T   T
  0.3165047857365550  0.4361412494664663  0.6101073976479086   T   T   T
  0.4312148650000012  0.0687851349999988  0.5187382883333314   F   F   F
  0.1812148650000012  0.1812148650000012  0.5645950449999972   F   F   F
  0.4336188187876715  0.1859711311296479  0.6101751439786938   T   T   T
  0.1775824040500069  0.0728226325293306  0.6494837592643989   T   T   T
  0.0687851349999988  0.4312148650000012  0.5645950449999972   F   F   F
  0.3187851349999988  0.3187851349999988  0.5187382883333314   F   F   F
  0.2500000000000000  0.5000000000000000  0.3750000000000000   F   F   F
  0.0000000000000000  0.7500000000000000  0.3750000000000000   F   F   F
  0.2500000000000000  0.7500000000000000  0.4583333333333357   F   F   F
  0.0000000000000000  0.5000000000000000  0.4583333333333357   F   F   F
  0.0687851349999988  0.8187851349999988  0.4812617116666686   F   F   F
  0.3187851349999988  0.9312148650000012  0.4354049550000028   F   F   F
  0.4312148650000012  0.5687851349999988  0.3520716216666671   F   F   F
  0.1812148650000012  0.6812148650000012  0.3979283783333329   F   F   F
  0.4312148650000012  0.6812148650000012  0.4354049550000028   F   F   F
  0.1812148650000012  0.5687851349999988  0.4812617116666686   F   F   F
  0.0687851349999988  0.9312148650000012  0.3979283783333329   F   F   F
  0.3187851349999988  0.8187851349999988  0.3520716216666671   F   F   F
  0.2500000000000000  0.5000000000000000  0.5416666666666643   F   F   F
  0.0000000000000000  0.7500000000000000  0.5416666666666643   F   F   F
  0.2433199966304542  0.7482170318800172  0.6233046494727859   T   T   T
  0.0066883211986877  0.4982676519677582  0.6233225560197653   T   T   T
  0.0725467981721408  0.8229120562787458  0.6495060622993307   T   T   T
  0.3165681529761812  0.9361309353377649  0.6101439686240369   T   T   T
  0.4312148650000012  0.5687851349999988  0.5187382883333314   F   F   F
  0.1812148650000012  0.6812148650000012  0.5645950449999972   F   F   F
  0.4336356864759807  0.6860969037289664  0.6101464152107852   T   T   T
  0.1775337255664411  0.5728547607729837  0.6494387289774082   T   T   T
  0.0687851349999988  0.9312148650000012  0.5645950449999972   F   F   F
  0.3187851349999988  0.8187851349999988  0.5187382883333314   F   F   F
  0.7500000000000000  0.0000000000000000  0.3750000000000000   F   F   F
  0.5000000000000000  0.2500000000000000  0.3750000000000000   F   F   F
  0.7500000000000000  0.2500000000000000  0.4583333333333357   F   F   F
  0.5000000000000000  0.0000000000000000  0.4583333333333357   F   F   F
  0.5687851349999988  0.3187851349999988  0.4812617116666686   F   F   F
  0.8187851349999988  0.4312148650000012  0.4354049550000028   F   F   F
  0.9312148650000012  0.0687851349999988  0.3520716216666671   F   F   F
  0.6812148650000012  0.1812148650000012  0.3979283783333329   F   F   F
  0.9312148650000012  0.1812148650000012  0.4354049550000028   F   F   F
  0.6812148650000012  0.0687851349999988  0.4812617116666686   F   F   F
  0.5687851349999988  0.4312148650000012  0.3979283783333329   F   F   F
  0.8187851349999988  0.3187851349999988  0.3520716216666671   F   F   F
  0.7500000000000000  0.0000000000000000  0.5416666666666643   F   F   F
  0.5000000000000000  0.2500000000000000  0.5416666666666643   F   F   F
  0.7432910327840005  0.2481898610687026  0.6233350827748794   T   T   T
  0.5066648712988240  0.9982798507140771  0.6233615682335909   T   T   T
  0.5724221788100934  0.3229033059814057  0.6494588670030197   T   T   T
  0.8165773854552825  0.4361035653177083  0.6101424351545504   T   T   T
  0.9312148650000012  0.0687851349999988  0.5187382883333314   F   F   F
  0.6812148650000012  0.1812148650000012  0.5645950449999972   F   F   F
  0.9335236006393828  0.1860940091383227  0.6101613617848685   T   T   T
  0.6774913298696958  0.0728323107232711  0.6494608506535329   T   T   T
  0.5687851349999988  0.4312148650000012  0.5645950449999972   F   F   F
  0.8187851349999988  0.3187851349999988  0.5187382883333314   F   F   F
  0.7500000000000000  0.5000000000000000  0.3750000000000000   F   F   F
  0.5000000000000000  0.7500000000000000  0.3750000000000000   F   F   F
  0.7500000000000000  0.7500000000000000  0.4583333333333357   F   F   F
  0.5000000000000000  0.5000000000000000  0.4583333333333357   F   F   F
  0.5687851349999988  0.8187851349999988  0.4812617116666686   F   F   F
  0.8187851349999988  0.9312148650000012  0.4354049550000028   F   F   F
  0.9312148650000012  0.5687851349999988  0.3520716216666671   F   F   F
  0.6812148650000012  0.6812148650000012  0.3979283783333329   F   F   F
  0.9312148650000012  0.6812148650000012  0.4354049550000028   F   F   F
  0.6812148650000012  0.5687851349999988  0.4812617116666686   F   F   F
  0.5687851349999988  0.9312148650000012  0.3979283783333329   F   F   F
  0.8187851349999988  0.8187851349999988  0.3520716216666671   F   F   F
  0.7500000000000000  0.5000000000000000  0.5416666666666643   F   F   F
  0.5000000000000000  0.7500000000000000  0.5416666666666643   F   F   F
  0.7433222195067160  0.7481976083188329  0.6233117553540950   T   T   T
  0.5066375692833986  0.4983210122445385  0.6233057708565610   T   T   T
  0.5724967290016991  0.8229467085645510  0.6494855807793058   T   T   T
  0.8166305192240131  0.9360918061263277  0.6101846251610468   T   T   T
  0.9312148650000012  0.5687851349999988  0.5187382883333314   F   F   F
  0.6812148650000012  0.6812148650000012  0.5645950449999972   F   F   F
  0.9335199516273178  0.6862222164949543  0.6101389522947542   T   T   T
  0.6774290560697196  0.5728568028377623  0.6494100644870429   T   T   T
  0.5687851349999988  0.9312148650000012  0.5645950449999972   F   F   F
  0.8187851349999988  0.8187851349999988  0.5187382883333314   F   F   F
 
  0.00000000E+00  0.00000000E+00  0.00000000E+00
  0.00000000E+00  0.00000000E+00  0.00000000E+00
  0.00000000E+00  0.00000000E+00  0.00000000E+00
  0.00000000E+00  0.00000000E+00  0.00000000E+00
  0.00000000E+00  0.00000000E+00  0.00000000E+00
  0.00000000E+00  0.00000000E+00  0.00000000E+00
  0.00000000E+00  0.00000000E+00  0.00000000E+00
  0.00000000E+00  0.00000000E+00  0.00000000E+00
  0.00000000E+00  0.00000000E+00  0.00000000E+00
  0.00000000E+00  0.00000000E+00  0.00000000E+00
  0.00000000E+00  0.00000000E+00  0.00000000E+00
  0.00000000E+00  0.00000000E+00  0.00000000E+00
  0.00000000E+00  0.00000000E+00  0.00000000E+00
  0.00000000E+00  0.00000000E+00  0.00000000E+00
  0.00000000E+00  0.00000000E+00  0.00000000E+00
  0.00000000E+00  0.00000000E+00  0.00000000E+00
  0.00000000E+00  0.00000000E+00  0.00000000E+00
  0.00000000E+00  0.00000000E+00  0.00000000E+00
  0.00000000E+00  0.00000000E+00  0.00000000E+00
  0.00000000E+00  0.00000000E+00  0.00000000E+00
  0.00000000E+00  0.00000000E+00  0.00000000E+00
  0.00000000E+00  0.00000000E+00  0.00000000E+00
  0.00000000E+00  0.00000000E+00  0.00000000E+00
  0.00000000E+00  0.00000000E+00  0.00000000E+00
  0.00000000E+00  0.00000000E+00  0.00000000E+00
  0.00000000E+00  0.00000000E+00  0.00000000E+00
  0.00000000E+00  0.00000000E+00  0.00000000E+00
  0.00000000E+00  0.00000000E+00  0.00000000E+00
  0.00000000E+00  0.00000000E+00  0.00000000E+00
  0.00000000E+00  0.00000000E+00  0.00000000E+00
  0.00000000E+00  0.00000000E+00  0.00000000E+00
  0.00000000E+00  0.00000000E+00  0.00000000E+00
  0.00000000E+00  0.00000000E+00  0.00000000E+00
  0.00000000E+00  0.00000000E+00  0.00000000E+00
  0.00000000E+00  0.00000000E+00  0.00000000E+00
  0.00000000E+00  0.00000000E+00  0.00000000E+00
  0.00000000E+00  0.00000000E+00  0.00000000E+00
  0.00000000E+00  0.00000000E+00  0.00000000E+00
  0.00000000E+00  0.00000000E+00  0.00000000E+00
  0.00000000E+00  0.00000000E+00  0.00000000E+00
  0.00000000E+00  0.00000000E+00  0.00000000E+00
  0.00000000E+00  0.00000000E+00  0.00000000E+00
  0.00000000E+00  0.00000000E+00  0.00000000E+00
  0.00000000E+00  0.00000000E+00  0.00000000E+00
  0.00000000E+00  0.00000000E+00  0.00000000E+00
  0.00000000E+00  0.00000000E+00  0.00000000E+00
  0.00000000E+00  0.00000000E+00  0.00000000E+00
  0.00000000E+00  0.00000000E+00  0.00000000E+00
  0.00000000E+00  0.00000000E+00  0.00000000E+00
  0.00000000E+00  0.00000000E+00  0.00000000E+00
  0.00000000E+00  0.00000000E+00  0.00000000E+00
  0.00000000E+00  0.00000000E+00  0.00000000E+00
  0.00000000E+00  0.00000000E+00  0.00000000E+00
  0.00000000E+00  0.00000000E+00  0.00000000E+00
  0.00000000E+00  0.00000000E+00  0.00000000E+00
  0.00000000E+00  0.00000000E+00  0.00000000E+00
  0.00000000E+00  0.00000000E+00  0.00000000E+00
  0.00000000E+00  0.00000000E+00  0.00000000E+00
  0.00000000E+00  0.00000000E+00  0.00000000E+00
  0.00000000E+00  0.00000000E+00  0.00000000E+00
  0.00000000E+00  0.00000000E+00  0.00000000E+00
  0.00000000E+00  0.00000000E+00  0.00000000E+00
  0.00000000E+00  0.00000000E+00  0.00000000E+00
  0.00000000E+00  0.00000000E+00  0.00000000E+00
  0.00000000E+00  0.00000000E+00  0.00000000E+00
  0.00000000E+00  0.00000000E+00  0.00000000E+00
  0.00000000E+00  0.00000000E+00  0.00000000E+00
  0.00000000E+00  0.00000000E+00  0.00000000E+00
  0.00000000E+00  0.00000000E+00  0.00000000E+00
  0.00000000E+00  0.00000000E+00  0.00000000E+00
  0.00000000E+00  0.00000000E+00  0.00000000E+00
  0.00000000E+00  0.00000000E+00  0.00000000E+00
  0.00000000E+00  0.00000000E+00  0.00000000E+00
  0.00000000E+00  0.00000000E+00  0.00000000E+00
  0.00000000E+00  0.00000000E+00  0.00000000E+00
  0.00000000E+00  0.00000000E+00  0.00000000E+00
  0.00000000E+00  0.00000000E+00  0.00000000E+00
  0.00000000E+00  0.00000000E+00  0.00000000E+00
  0.00000000E+00  0.00000000E+00  0.00000000E+00
  0.00000000E+00  0.00000000E+00  0.00000000E+00
  0.00000000E+00  0.00000000E+00  0.00000000E+00
  0.00000000E+00  0.00000000E+00  0.00000000E+00
  0.00000000E+00  0.00000000E+00  0.00000000E+00
  0.00000000E+00  0.00000000E+00  0.00000000E+00
  0.00000000E+00  0.00000000E+00  0.00000000E+00
  0.00000000E+00  0.00000000E+00  0.00000000E+00
  0.00000000E+00  0.00000000E+00  0.00000000E+00
  0.00000000E+00  0.00000000E+00  0.00000000E+00
  0.00000000E+00  0.00000000E+00  0.00000000E+00
  0.00000000E+00  0.00000000E+00  0.00000000E+00
  0.00000000E+00  0.00000000E+00  0.00000000E+00
  0.00000000E+00  0.00000000E+00  0.00000000E+00
  0.00000000E+00  0.00000000E+00  0.00000000E+00
  0.00000000E+00  0.00000000E+00  0.00000000E+00
  0.00000000E+00  0.00000000E+00  0.00000000E+00
  0.00000000E+00  0.00000000E+00  0.00000000E+00
