Ni Te
 1.0000000000000000
    12.9312780400000005    0.0000000000000000    0.0000000000000008
    -0.0000000000000008   12.9312780400000005    0.0000000000000008
     0.0000000000000000    0.0000000000000000   38.7938341199999996
Ni Te
32 64
Selective dynamics
Cartesian
  3.2328195100000001  0.0000000000000000 14.5476877950000016   F   F   F
 -0.0000000000000002  3.2328195100000001 14.5476877950000016   F   F   F
  3.2328195100000001  3.2328195100000001 17.7805073050000004   F   F   F
  0.0000000000000000  0.0000000000000000 17.7805073050000004   F   F   F
  0.8894797057039344  4.1222992157039346 18.6699870107039381   F   F   F
  4.1222992157039346  5.5761593142960653 16.8910275992960663   F   F   F
  5.5761593142960653  0.8894797057039346 13.6582080892960658   F   F   F
  2.3433398042960647  2.3433398042960638 15.4371675007039375   F   F   F
  5.5761593142960653  2.3433398042960656 16.8910275992960663   F   F   F
  2.3433398042960647  0.8894797057039346 18.6699870107039381   F   F   F
  0.8894797057039343  5.5761593142960653 15.4371675007039375   F   F   F
  4.1222992157039346  4.1222992157039346 13.6582080892960658   F   F   F
  3.2328195100000001  0.0000000000000000 21.0133268150000028   F   F   F
 -0.0000000000000002  3.2328195100000001 21.0133268150000028   F   F   F
  3.1460769175483718  3.2096401606560092 24.1813666274318422   T   T   T
  0.0868760512094013 -0.0228544548153877 24.1831764906308564   T   T   T
  0.9371635637401144  4.1748852185395311 25.1957372595171201   T   T   T
  4.0928113853500339  5.6398637615638751 23.6684051797379489   T   T   T
  5.5761593142960653  0.8894797057039346 20.1238471092960651   F   F   F
  2.3433398042960647  2.3433398042960638 21.9028065207039369   F   F   F
  5.6072455091197941  2.4048444040507642 23.6710333196566189   T   T   T
  2.2963674417822943  0.9416897088415231 25.1959652205369657   T   T   T
  0.8894797057039343  5.5761593142960653 21.9028065207039369   F   F   F
  4.1222992157039346  4.1222992157039346 20.1238471092960651   F   F   F
  3.2328195099999997  6.4656390200000002 14.5476877950000016   F   F   F
 -0.0000000000000006  9.6984585299999999 14.5476877950000016   F   F   F
  3.2328195099999997  9.6984585299999999 17.7805073050000004   F   F   F
 -0.0000000000000004  6.4656390200000002 17.7805073050000004   F   F   F
  0.8894797057039340 10.5879382357039340 18.6699870107039381   F   F   F
  4.1222992157039346 12.0417983342960646 16.8910275992960663   F   F   F
  5.5761593142960653  7.3551187257039352 13.6582080892960658   F   F   F
  2.3433398042960643  8.8089788242960640 15.4371675007039375   F   F   F
  5.5761593142960653  8.8089788242960658 16.8910275992960663   F   F   F
  2.3433398042960643  7.3551187257039352 18.6699870107039381   F   F   F
  0.8894797057039339 12.0417983342960646 15.4371675007039375   F   F   F
  4.1222992157039346 10.5879382357039340 13.6582080892960658   F   F   F
  3.2328195099999997  6.4656390200000002 21.0133268150000028   F   F   F
 -0.0000000000000006  9.6984585299999999 21.0133268150000028   F   F   F
  3.1464385291202328  9.6754024735040112 24.1803771778721313   T   T   T
  0.0864885410410348  6.4432375459329903 24.1810718414852346   T   T   T
  0.9381228180757261 10.6413046022085673 25.1968304407747219   T   T   T
  4.0936308047442811 12.1053694066978927 23.6698239081193442   T   T   T
  5.5761593142960653  7.3551187257039352 20.1238471092960651   F   F   F
  2.3433398042960643  8.8089788242960640 21.9028065207039369   F   F   F
  5.6074636298871798  8.8721098245024059 23.6699188205999071   T   T   T
  2.2957379667767408  7.4077441880931225 25.1942183230531391   T   T   T
  0.8894797057039339 12.0417983342960646 21.9028065207039369   F   F   F
  4.1222992157039346 10.5879382357039340 20.1238471092960651   F   F   F
  9.6984585299999999  0.0000000000000000 14.5476877950000016   F   F   F
  6.4656390200000002  3.2328195100000001 14.5476877950000016   F   F   F
  9.6984585299999999  3.2328195100000001 17.7805073050000004   F   F   F
  6.4656390200000002  0.0000000000000000 17.7805073050000004   F   F   F
  7.3551187257039343  4.1222992157039346 18.6699870107039381   F   F   F
 10.5879382357039340  5.5761593142960653 16.8910275992960663   F   F   F
 12.0417983342960646  0.8894797057039346 13.6582080892960658   F   F   F
  8.8089788242960658  2.3433398042960638 15.4371675007039375   F   F   F
 12.0417983342960646  2.3433398042960656 16.8910275992960663   F   F   F
  8.8089788242960658  0.8894797057039346 18.6699870107039381   F   F   F
  7.3551187257039343  5.5761593142960653 15.4371675007039375   F   F   F
 10.5879382357039340  4.1222992157039346 13.6582080892960658   F   F   F
  9.6984585299999999  0.0000000000000000 21.0133268150000028   F   F   F
  6.4656390200000002  3.2328195100000001 21.0133268150000028   F   F   F
  9.6117030095686751  3.2094121001883749 24.1815578023450399   T   T   T
  6.5518243238659322 -0.0222437286865897 24.1825852748368817   T   T   T
  7.4021503504559147  4.1755524296807938 25.1949995542782581   T   T   T
 10.5593892124985196  5.6393764573585674 23.6697644189585681   T   T   T
 12.0417983342960646  0.8894797057039346 20.1238471092960651   F   F   F
  8.8089788242960658  2.3433398042960638 21.9028065207039369   F   F   F
 12.0716532367698086  2.4064333737459132 23.6704986555156047   T   T   T
  8.7608287562344067  0.9418148602583193 25.1950765076872649   T   T   T
  7.3551187257039343  5.5761593142960653 21.9028065207039369   F   F   F
 10.5879382357039340  4.1222992157039346 20.1238471092960651   F   F   F
  9.6984585299999999  6.4656390200000002 14.5476877950000016   F   F   F
  6.4656390200000002  9.6984585299999999 14.5476877950000016   F   F   F
  9.6984585299999999  9.6984585299999999 17.7805073050000004   F   F   F
  6.4656390200000002  6.4656390200000002 17.7805073050000004   F   F   F
  7.3551187257039343 10.5879382357039340 18.6699870107039381   F   F   F
 10.5879382357039340 12.0417983342960646 16.8910275992960663   F   F   F
 12.0417983342960646  7.3551187257039352 13.6582080892960658   F   F   F
  8.8089788242960658  8.8089788242960640 15.4371675007039375   F   F   F
 12.0417983342960646  8.8089788242960658 16.8910275992960663   F   F   F
  8.8089788242960658  7.3551187257039352 18.6699870107039381   F   F   F
  7.3551187257039343 12.0417983342960646 15.4371675007039375   F   F   F
 10.5879382357039340 10.5879382357039340 13.6582080892960658   F   F   F
  9.6984585299999999  6.4656390200000002 21.0133268150000028   F   F   F
  6.4656390200000002  9.6984585299999999 21.0133268150000028   F   F   F
  9.6121062937512143  9.6751513020338571 24.1806528422528828   T   T   T
  6.5514712739133953  6.4439275625083807 24.1804206806480835   T   T   T
  7.4031143797114707 10.6417527005510983 25.1960358840843419   T   T   T
 10.5600763000353091 12.1048634159853385 23.6714011310719634   T   T   T
 12.0417983342960646  7.3551187257039352 20.1238471092960651   F   F   F
  8.8089788242960658  8.8089788242960640 21.9028065207039369   F   F   F
 12.0716060503802431  8.8737302787213430 23.6696293054734106   T   T   T
  8.7600234764123179  7.4077705946005814 25.1931063175689651   T   T   T
  7.3551187257039343 12.0417983342960646 21.9028065207039369   F   F   F
 10.5879382357039340 10.5879382357039340 20.1238471092960651   F   F   F
