Ag Pd                                   
   1.00000000000000     
    10.1349601359378347    0.0000000000000000   -5.8514219627098383
    -0.0000000000000006    9.6314918600000006    0.0000000000000006
     0.0000000000000000    0.0000000000000000   35.1085317762590137
   Ag   Pd
    48    16
Selective dynamics
Direct
  0.3320825400000018  0.1250000000000000  0.4720137566666693   F   F   F
  0.0839587299999991  0.1250000000000000  0.3893058199999970   F   F   F
  0.0839587299999991  0.1250000000000000  0.4720137566666693   F   F   F
  0.1679174599999982  0.3750000000000000  0.3613195766666664   F   F   F
  0.4160412700000009  0.3750000000000000  0.4440275133333316   F   F   F
  0.4160412700000009  0.3750000000000000  0.3613195766666664   F   F   F
  0.1666666666666643  0.3750000000000000  0.4444444444444429   F   F   F
  0.3333333333333357  0.1250000000000000  0.3888888888888857   F   F   F
  0.3289058820692503  0.1249861037188111  0.6363082930164126   T   T   T
  0.0824879256531190  0.1250014552319385  0.5550225319279889   T   T   T
  0.0799722908490779  0.1249876449908385  0.6362923765833131   T   T   T
  0.1693704754887975  0.3750522313689117  0.5283156499098212   T   T   T
  0.4200174341230536  0.3750340606349738  0.6133205273812621   T   T   T
  0.4154322445872225  0.3749615829117303  0.5282804819308922   T   T   T
  0.1656035612667210  0.3750139096836378  0.6104542723788526   T   T   T
  0.3333333333333357  0.1250000000000000  0.5555555555555571   F   F   F
  0.3320825400000018  0.6250000000000000  0.4720137566666693   F   F   F
  0.0839587299999991  0.6250000000000000  0.3893058199999970   F   F   F
  0.0839587299999991  0.6250000000000000  0.4720137566666693   F   F   F
  0.1679174599999982  0.8750000000000000  0.3613195766666664   F   F   F
  0.4160412700000009  0.8750000000000000  0.4440275133333316   F   F   F
  0.4160412700000009  0.8750000000000000  0.3613195766666664   F   F   F
  0.1666666666666643  0.8750000000000000  0.4444444444444429   F   F   F
  0.3333333333333357  0.6250000000000000  0.3888888888888857   F   F   F
  0.3289153286153521  0.6249594690252849  0.6363124194519116   T   T   T
  0.0825463408859761  0.6249849059718571  0.5550420930010134   T   T   T
  0.0799735956046277  0.6251412970199581  0.6362760355684074   T   T   T
  0.1693105647582769  0.8749710022007235  0.5283004023476039   T   T   T
  0.4199785742256523  0.8749916203277266  0.6133299567587329   T   T   T
  0.4153948213564504  0.8750248922648538  0.5282536924637640   T   T   T
  0.1656228588219122  0.8749751804867429  0.6104436631659809   T   T   T
  0.3333333333333357  0.6250000000000000  0.5555555555555571   F   F   F
  0.8320825400000018  0.1250000000000000  0.4720137566666693   F   F   F
  0.5839587299999991  0.1250000000000000  0.3893058199999970   F   F   F
  0.5839587299999991  0.1250000000000000  0.4720137566666693   F   F   F
  0.6679174599999982  0.3750000000000000  0.3613195766666664   F   F   F
  0.9160412700000009  0.3750000000000000  0.4440275133333316   F   F   F
  0.9160412700000009  0.3750000000000000  0.3613195766666664   F   F   F
  0.6666666666666643  0.3750000000000000  0.4444444444444429   F   F   F
  0.8333333333333357  0.1250000000000000  0.3888888888888857   F   F   F
  0.8288719600617185  0.1249787202563226  0.6362681373546906   T   T   T
  0.5825478436143996  0.1249828832441722  0.5550248851175112   T   T   T
  0.5799663690735670  0.1249856410804995  0.6362979946328551   T   T   T
  0.6694339580156807  0.3750465302876123  0.5282711899297041   T   T   T
  0.9199586221116860  0.3750510014216886  0.6132837716615214   T   T   T
  0.9154113646188193  0.3749655157593068  0.5282712082038188   T   T   T
  0.6656697865381744  0.3750127818360269  0.6104329783975615   T   T   T
  0.8333333333333357  0.1250000000000000  0.5555555555555571   F   F   F
  0.8320825400000018  0.6250000000000000  0.4720137566666693   F   F   F
  0.5839587299999991  0.6250000000000000  0.3893058199999970   F   F   F
  0.5839587299999991  0.6250000000000000  0.4720137566666693   F   F   F
  0.6679174599999982  0.8750000000000000  0.3613195766666664   F   F   F
  0.9160412700000009  0.8750000000000000  0.4440275133333316   F   F   F
  0.9160412700000009  0.8750000000000000  0.3613195766666664   F   F   F
  0.6666666666666643  0.8750000000000000  0.4444444444444429   F   F   F
  0.8333333333333357  0.6250000000000000  0.3888888888888857   F   F   F
  0.8288796079007454  0.6249690180636449  0.6362678836951972   T   T   T
  0.5826041386901935  0.6250017644260311  0.5550408526608308   T   T   T
  0.5799667501586399  0.6251375331469617  0.6362822753725368   T   T   T
  0.6693484373068657  0.8749650627184806  0.5282404284027962   T   T   T
  0.9198990119515429  0.8749827106541375  0.6132806019344414   T   T   T
  0.9153542608905525  0.8750294459090142  0.5282332742469293   T   T   T
  0.6656884586313581  0.8749809204340480  0.6104180283593976   T   T   T
  0.8333333333333357  0.6250000000000000  0.5555555555555571   F   F   F
 
  0.00000000E+00  0.00000000E+00  0.00000000E+00
  0.00000000E+00  0.00000000E+00  0.00000000E+00
  0.00000000E+00  0.00000000E+00  0.00000000E+00
  0.00000000E+00  0.00000000E+00  0.00000000E+00
  0.00000000E+00  0.00000000E+00  0.00000000E+00
  0.00000000E+00  0.00000000E+00  0.00000000E+00
  0.00000000E+00  0.00000000E+00  0.00000000E+00
  0.00000000E+00  0.00000000E+00  0.00000000E+00
  0.00000000E+00  0.00000000E+00  0.00000000E+00
  0.00000000E+00  0.00000000E+00  0.00000000E+00
  0.00000000E+00  0.00000000E+00  0.00000000E+00
  0.00000000E+00  0.00000000E+00  0.00000000E+00
  0.00000000E+00  0.00000000E+00  0.00000000E+00
  0.00000000E+00  0.00000000E+00  0.00000000E+00
  0.00000000E+00  0.00000000E+00  0.00000000E+00
  0.00000000E+00  0.00000000E+00  0.00000000E+00
  0.00000000E+00  0.00000000E+00  0.00000000E+00
  0.00000000E+00  0.00000000E+00  0.00000000E+00
  0.00000000E+00  0.00000000E+00  0.00000000E+00
  0.00000000E+00  0.00000000E+00  0.00000000E+00
  0.00000000E+00  0.00000000E+00  0.00000000E+00
  0.00000000E+00  0.00000000E+00  0.00000000E+00
  0.00000000E+00  0.00000000E+00  0.00000000E+00
  0.00000000E+00  0.00000000E+00  0.00000000E+00
  0.00000000E+00  0.00000000E+00  0.00000000E+00
  0.00000000E+00  0.00000000E+00  0.00000000E+00
  0.00000000E+00  0.00000000E+00  0.00000000E+00
  0.00000000E+00  0.00000000E+00  0.00000000E+00
  0.00000000E+00  0.00000000E+00  0.00000000E+00
  0.00000000E+00  0.00000000E+00  0.00000000E+00
  0.00000000E+00  0.00000000E+00  0.00000000E+00
  0.00000000E+00  0.00000000E+00  0.00000000E+00
  0.00000000E+00  0.00000000E+00  0.00000000E+00
  0.00000000E+00  0.00000000E+00  0.00000000E+00
  0.00000000E+00  0.00000000E+00  0.00000000E+00
  0.00000000E+00  0.00000000E+00  0.00000000E+00
  0.00000000E+00  0.00000000E+00  0.00000000E+00
  0.00000000E+00  0.00000000E+00  0.00000000E+00
  0.00000000E+00  0.00000000E+00  0.00000000E+00
  0.00000000E+00  0.00000000E+00  0.00000000E+00
  0.00000000E+00  0.00000000E+00  0.00000000E+00
  0.00000000E+00  0.00000000E+00  0.00000000E+00
  0.00000000E+00  0.00000000E+00  0.00000000E+00
  0.00000000E+00  0.00000000E+00  0.00000000E+00
  0.00000000E+00  0.00000000E+00  0.00000000E+00
  0.00000000E+00  0.00000000E+00  0.00000000E+00
  0.00000000E+00  0.00000000E+00  0.00000000E+00
  0.00000000E+00  0.00000000E+00  0.00000000E+00
  0.00000000E+00  0.00000000E+00  0.00000000E+00
  0.00000000E+00  0.00000000E+00  0.00000000E+00
  0.00000000E+00  0.00000000E+00  0.00000000E+00
  0.00000000E+00  0.00000000E+00  0.00000000E+00
  0.00000000E+00  0.00000000E+00  0.00000000E+00
  0.00000000E+00  0.00000000E+00  0.00000000E+00
  0.00000000E+00  0.00000000E+00  0.00000000E+00
  0.00000000E+00  0.00000000E+00  0.00000000E+00
  0.00000000E+00  0.00000000E+00  0.00000000E+00
  0.00000000E+00  0.00000000E+00  0.00000000E+00
  0.00000000E+00  0.00000000E+00  0.00000000E+00
  0.00000000E+00  0.00000000E+00  0.00000000E+00
  0.00000000E+00  0.00000000E+00  0.00000000E+00
  0.00000000E+00  0.00000000E+00  0.00000000E+00
  0.00000000E+00  0.00000000E+00  0.00000000E+00
  0.00000000E+00  0.00000000E+00  0.00000000E+00
