Ag Pd
 1.0000000000000000
    10.1349601359378347    0.0000000000000000   -5.8514219627098383
    -0.0000000000000006    9.6314918600000006    0.0000000000000006
     0.0000000000000000    0.0000000000000000   35.1085317762590137
Ag Pd
48 16
Selective dynamics
Cartesian
  3.3656433047409813  1.2039364825000001 14.6285549067745873   F   F   F
  0.8509183816139677  1.2039364825000001 13.1766777954693470   F   F   F
  0.8509183816139675  1.2039364825000001 16.0804320180798328   F   F   F
  1.7018367632279359  3.6118094475000002 11.7028439254196712   F   F   F
  4.2165616863549493  3.6118094475000002 13.1547210367249114   F   F   F
  4.2165616863549493  3.6118094475000002 10.2509668141144275   F   F   F
  1.6891600226563055  3.6118094475000002 14.6285549067745890   F   F   F
  3.3783200453126114  1.2039364825000001 11.7028439254196730   F   F   F
  3.3334480032473515  1.2038026405808631 20.4152828228594920   T   T   T
  0.8360118381905460  1.2039504985545926 19.0033545389084857   T   T   T
  0.8105159797350033  1.2038174853298522 21.8713395031842062   T   T   T
  1.7165630172837945  3.6123125135045124 17.5573286626440535   T   T   T
  4.2568599512360796  3.6121375022284705 19.0750839858482593   T   T   T
  4.2103892380746819  3.6114394336270474 16.1162827266526065   T   T   T
  1.6783854918075845  3.6119434185047434 20.4631369042669142   T   T   T
  3.3783200453126114  1.2039364825000001 17.5542658881295068   F   F   F
  3.3656433047409808  6.0196824124999999 14.6285549067745873   F   F   F
  0.8509183816139674  6.0196824124999999 13.1766777954693470   F   F   F
  0.8509183816139672  6.0196824124999999 16.0804320180798328   F   F   F
  1.7018367632279356  8.4275553775000009 11.7028439254196712   F   F   F
  4.2165616863549493  8.4275553775000009 13.1547210367249114   F   F   F
  4.2165616863549493  8.4275553775000009 10.2509668141144275   F   F   F
  1.6891600226563053  8.4275553775000009 14.6285549067745890   F   F   F
  3.3783200453126110  6.0196824124999999 11.7028439254196730   F   F   F
  3.3335437436154751  6.0192920387469506 20.4153724202239140   T   T   T
  0.8366038742468780  6.0195370344908348 19.0036994872859459   T   T   T
  0.8105292033805132  6.0210433135975414 21.8707581594677301   T   T   T
  1.7159558244182214  8.4272760854322843 17.5571439060858978   T   T   T
  4.2564661077249601  8.4274746687547424 19.0756424231039361   T   T   T
  4.2100099551226284  8.4277951271463412 16.1155611669092096   T   T   T
  1.6785810717601446  8.4273163285601260 20.4626515122414752   T   T   T
  3.3783200453126110  6.0196824124999999 17.5542658881295068   F   F   F
  8.4331233727098986  1.2039364825000001 11.7028439254196677   F   F   F
  5.9183984495828854  1.2039364825000001 10.2509668141144275   F   F   F
  5.9183984495828845  1.2039364825000001 13.1547210367249132   F   F   F
  6.7693168311968535  3.6118094475000002  8.7771329440647516   F   F   F
  9.2840417543238658  3.6118094475000002 10.2290100553699919   F   F   F
  9.2840417543238658  3.6118094475000002  7.3252558327595079   F   F   F
  6.7566400906252229  3.6118094475000002 11.7028439254196694   F   F   F
  8.4458001132815284  1.2039364825000001  8.7771329440647534   F   F   F
  8.4005842730221882  1.2037315268219850 17.4883605271588642   T   T   T
  5.9040991723084817  1.2037716226055744 16.0773755693080993   T   T   T
  5.8779360307451789  1.2037981846836936 18.9458604141072406   T   T   T
  6.7846864781319951  3.6122576035863498 14.6296852936123454   T   T   T
  9.3237439618142020  3.6123006672778142 16.1484266990339762   T   T   T
  9.2776576883961610  3.6114773128164965 13.1903683358617609   T   T   T
  6.7465367502626750  3.6119325556496373 17.5362908104852870   T   T   T
  8.4458001132815284  1.2039364825000001 14.6285549067745873   F   F   F
  8.4331233727098986  6.0196824124999999 11.7028439254196677   F   F   F
  5.9183984495828854  6.0196824124999999 10.2509668141144275   F   F   F
  5.9183984495828845  6.0196824124999999 13.1547210367249150   F   F   F
  6.7693168311968535  8.4275553775000009  8.7771329440647534   F   F   F
  9.2840417543238658  8.4275553775000009 10.2290100553699936   F   F   F
  9.2840417543238658  8.4275553775000009  7.3252558327595088   F   F   F
  6.7566400906252229  8.4275553775000009 11.7028439254196712   F   F   F
  8.4458001132815284  6.0196824124999999  8.7771329440647534   F   F   F
  8.4006617835658215  6.0193840102321969 17.4883068708131653   T   T   T
  5.9046697206575418  6.0196994065549312 16.0776067600673223   T   T   T
  5.8779398930272073  6.0210070618854239 18.9453063040672838   T   T   T
  6.7838197291573366  8.4272188793574134 14.6291057193214513   T   T   T
  9.3231398152174592  8.4273888553060790 16.1486642187703779   T   T   T
  9.2770789443866164  8.4278389855329880 13.1893706683407572   T   T   T
  6.7467259911826831  8.4273716128158487 17.5356566782993362   T   T   T
  8.4458001132815284  6.0196824124999999 14.6285549067745890   F   F   F
