Pd Se Te O                              
   1.00000000000000     
     8.1685753826711558    0.0000000000000000    0.0000000000000005
    -2.0421438456677867   17.7067390056748870    0.0254819193495702
     0.0000000000000000    0.0000000000000000   30.9042557629933086
   Pd   Se   Te   O 
    20     8    32     1
Selective dynamics
Direct
  0.0068100741655002  0.0096899662881711  0.5818833337013700   T   T   T
  0.3049659870608963  0.2059956864483894  0.5824443125251477   T   T   T
  0.1027822378050729  0.4097014296484147  0.5797607643870819   T   T   T
  0.4034507508330663  0.6134278167523561  0.5800698116446270   T   T   T
  0.2040751595766892  0.8170136195291491  0.5801883416131020   T   T   T
  0.0030252175000030  0.0121008699999976  0.4130710494299024   F   F   F
  0.3015607150000008  0.2062428600000032  0.4128569677632328   F   F   F
  0.1023621074999994  0.4094484299999976  0.4139641344299037   F   F   F
  0.4032086799999988  0.6128347200000022  0.4140533360965719   F   F   F
  0.2041695750000017  0.8166782999999995  0.4140868027632365   F   F   F
  0.0377313517442914  0.1418525331649505  0.5439575371078433   T   T   T
  0.2369015499999989  0.9476062000000027  0.5393603594299066   F   F   F
  0.0355944499999978  0.1423777999999984  0.3723346194298998   F   F   F
  0.2369015499999989  0.9476062000000027  0.3726936927632352   F   F   F
  0.3354326425000025  0.3417305700000028  0.5354545860965700   F   F   F
  0.1361437824999996  0.5445751299999984  0.5362569344299004   F   F   F
  0.4371014350000024  0.7484057400000026  0.5359636627632369   F   F   F
  0.2702503035043122  0.0727558778773911  0.6276955291351811   T   T   T
  0.0733901788504170  0.2762938156152543  0.6251472372247235   T   T   T
  0.3698148325277870  0.4783064012540024  0.6243123393073731   T   T   T
  0.1705254102090947  0.6827364253867287  0.6240317317277189   T   T   T
  0.4689109852359792  0.8801323129007343  0.6262907831325464   T   T   T
  0.3354326425000025  0.3417305700000028  0.3687879194299057   F   F   F
  0.1361437824999996  0.5445751299999984  0.3695902677632361   F   F   F
  0.4371014350000024  0.7484057400000026  0.3692969960965726   F   F   F
  0.2687737899999973  0.0750951599999965  0.4590819127632386   F   F   F
  0.0684404049999969  0.2737616200000019  0.4573210827632366   F   F   F
  0.3694100275000025  0.4776401100000029  0.4586271310965699   F   F   F
  0.1703886674999993  0.6815546699999970  0.4583546760965689   F   F   F
  0.4703487425000006  0.8813949700000023  0.4596785310965714   F   F   F
  0.5002240263212911  0.0095630042082533  0.5817235511803602   T   T   T
  0.8056352516466916  0.2086651009780667  0.5824509943159271   T   T   T
  0.6026574009850592  0.4096460834807232  0.5797540871869415   T   T   T
  0.9035154989515846  0.6131121618427500  0.5801148850376592   T   T   T
  0.7043159435536595  0.8169872928966768  0.5804018584125572   T   T   T
  0.5030252175000030  0.0121008699999976  0.4130710494299024   F   F   F
  0.8015607150000008  0.2062428600000032  0.4128569677632328   F   F   F
  0.6023621074999994  0.4094484299999976  0.4139641344299037   F   F   F
  0.9032086799999988  0.6128347200000022  0.4140533360965719   F   F   F
  0.7041695750000017  0.8166782999999995  0.4140868027632365   F   F   F
  0.5401056931379955  0.1415076825643666  0.5440033148097854   T   T   T
  0.7369015499999989  0.9476062000000027  0.5393603594299066   F   F   F
  0.5355944499999978  0.1423777999999984  0.3723346194298998   F   F   F
  0.7369015499999989  0.9476062000000027  0.3726936927632352   F   F   F
  0.8354326425000025  0.3417305700000028  0.5354545860965700   F   F   F
  0.6361437824999996  0.5445751299999984  0.5362569344299004   F   F   F
  0.9371014350000024  0.7484057400000026  0.5359636627632369   F   F   F
  0.7710941983386164  0.0730337636313863  0.6255650421654408   T   T   T
  0.5715066612722666  0.2762073164342809  0.6250191030045258   T   T   T
  0.8698553875575286  0.4774498538720522  0.6242552448374497   T   T   T
  0.6711235331748640  0.6825351947540668  0.6240540401305239   T   T   T
  0.9711653907083928  0.8802520243746201  0.6263317085680171   T   T   T
  0.8354326425000025  0.3417305700000028  0.3687879194299057   F   F   F
  0.6361437824999996  0.5445751299999984  0.3695902677632361   F   F   F
  0.9371014350000024  0.7484057400000026  0.3692969960965726   F   F   F
  0.7687737899999973  0.0750951599999965  0.4590819127632386   F   F   F
  0.5684404049999969  0.2737616200000019  0.4573210827632366   F   F   F
  0.8694100275000025  0.4776401100000029  0.4586271310965699   F   F   F
  0.6703886674999993  0.6815546699999970  0.4583546760965689   F   F   F
  0.9703487425000006  0.8813949700000023  0.4596785310965714   F   F   F
  0.7766666063469359  0.0671762653996026  0.6852770105053736   T   T   T
 
  0.00000000E+00  0.00000000E+00  0.00000000E+00
  0.00000000E+00  0.00000000E+00  0.00000000E+00
  0.00000000E+00  0.00000000E+00  0.00000000E+00
  0.00000000E+00  0.00000000E+00  0.00000000E+00
  0.00000000E+00  0.00000000E+00  0.00000000E+00
  0.00000000E+00  0.00000000E+00  0.00000000E+00
  0.00000000E+00  0.00000000E+00  0.00000000E+00
  0.00000000E+00  0.00000000E+00  0.00000000E+00
  0.00000000E+00  0.00000000E+00  0.00000000E+00
  0.00000000E+00  0.00000000E+00  0.00000000E+00
  0.00000000E+00  0.00000000E+00  0.00000000E+00
  0.00000000E+00  0.00000000E+00  0.00000000E+00
  0.00000000E+00  0.00000000E+00  0.00000000E+00
  0.00000000E+00  0.00000000E+00  0.00000000E+00
  0.00000000E+00  0.00000000E+00  0.00000000E+00
  0.00000000E+00  0.00000000E+00  0.00000000E+00
  0.00000000E+00  0.00000000E+00  0.00000000E+00
  0.00000000E+00  0.00000000E+00  0.00000000E+00
  0.00000000E+00  0.00000000E+00  0.00000000E+00
  0.00000000E+00  0.00000000E+00  0.00000000E+00
  0.00000000E+00  0.00000000E+00  0.00000000E+00
  0.00000000E+00  0.00000000E+00  0.00000000E+00
  0.00000000E+00  0.00000000E+00  0.00000000E+00
  0.00000000E+00  0.00000000E+00  0.00000000E+00
  0.00000000E+00  0.00000000E+00  0.00000000E+00
  0.00000000E+00  0.00000000E+00  0.00000000E+00
  0.00000000E+00  0.00000000E+00  0.00000000E+00
  0.00000000E+00  0.00000000E+00  0.00000000E+00
  0.00000000E+00  0.00000000E+00  0.00000000E+00
  0.00000000E+00  0.00000000E+00  0.00000000E+00
  0.00000000E+00  0.00000000E+00  0.00000000E+00
  0.00000000E+00  0.00000000E+00  0.00000000E+00
  0.00000000E+00  0.00000000E+00  0.00000000E+00
  0.00000000E+00  0.00000000E+00  0.00000000E+00
  0.00000000E+00  0.00000000E+00  0.00000000E+00
  0.00000000E+00  0.00000000E+00  0.00000000E+00
  0.00000000E+00  0.00000000E+00  0.00000000E+00
  0.00000000E+00  0.00000000E+00  0.00000000E+00
  0.00000000E+00  0.00000000E+00  0.00000000E+00
  0.00000000E+00  0.00000000E+00  0.00000000E+00
  0.00000000E+00  0.00000000E+00  0.00000000E+00
  0.00000000E+00  0.00000000E+00  0.00000000E+00
  0.00000000E+00  0.00000000E+00  0.00000000E+00
  0.00000000E+00  0.00000000E+00  0.00000000E+00
  0.00000000E+00  0.00000000E+00  0.00000000E+00
  0.00000000E+00  0.00000000E+00  0.00000000E+00
  0.00000000E+00  0.00000000E+00  0.00000000E+00
  0.00000000E+00  0.00000000E+00  0.00000000E+00
  0.00000000E+00  0.00000000E+00  0.00000000E+00
  0.00000000E+00  0.00000000E+00  0.00000000E+00
  0.00000000E+00  0.00000000E+00  0.00000000E+00
  0.00000000E+00  0.00000000E+00  0.00000000E+00
  0.00000000E+00  0.00000000E+00  0.00000000E+00
  0.00000000E+00  0.00000000E+00  0.00000000E+00
  0.00000000E+00  0.00000000E+00  0.00000000E+00
  0.00000000E+00  0.00000000E+00  0.00000000E+00
  0.00000000E+00  0.00000000E+00  0.00000000E+00
  0.00000000E+00  0.00000000E+00  0.00000000E+00
  0.00000000E+00  0.00000000E+00  0.00000000E+00
  0.00000000E+00  0.00000000E+00  0.00000000E+00
  0.00000000E+00  0.00000000E+00  0.00000000E+00
