Pd Se Te O
 1.0000000000000000
     8.1685753826711558    0.0000000000000000    0.0000000000000005
    -2.0421438456677867   17.7067390056748870    0.0254819193495702
     0.0000000000000000    0.0000000000000000   30.9042557629933086
Pd Se Te O
20 8 32 1
Selective dynamics
Cartesian
  0.0358402991623741  0.1715777040384652 17.9829182878697935   T   T   T
  2.0704648311429370  3.6475118562364646 18.0052571674463699   T   T   T
  0.0029152043925940  7.2544762850363167 17.9275149227545576   T   T   T
  2.0429100306329202 10.8618062500549417 17.9422571376102518   T   T   T
 -0.0014560102154044 14.4666469250843956 17.9511079750785463   T   T   T
  0.0000000000000003  0.2142669468315959 12.7659617132631773   F   F   F
  2.0421438456677894  3.6518884938039395 12.7642927892138829   F   F   F
  0.0000000000000007  7.2499964862933393 12.8036870189989358   F   F   F
  2.0421438456677903 10.8513044406558397 12.8116264031586766   F   F   F
  0.0000000000000020 14.4607095096982530 12.8178549912503623   F   F   F
  0.0185281134181431  2.5117457820456317 16.8142175257983553   T   T   T
  0.0000000000000022 16.7790156635593526 16.6926773210052737   F   F   F
  0.0000000000000010  2.5210465448021719 11.5103523678952691   F   F   F
  0.0000000000000022 16.7790156635593526 11.5419680271730556   F   F   F
  2.0421438456677894  6.0509340132505098 16.5565334290201278   F   F   F
  0.0000000000000011  9.6426496958914676 16.5864982758428958   F   F   F
  2.0421438456677907 13.2518251085289691 16.5826289284131825   F   F   F
  2.0589820081212848  1.2882693407037382 19.4003171330932354   T   T   T
  0.0352614931325661  4.8922624819813691 19.3267506054478346   T   T   T
  2.0440898634687650  8.4692466117481722 19.3060963750887886   T   T   T
 -0.0012963213628139 12.0890356939902244 19.3026336760658097   T   T   T
  2.0329779444991196 15.5842731549942854 19.3774780045479744   T   T   T
  2.0421438456677898  6.0509340132505081 11.4058241351879168   F   F   F
  0.0000000000000011  9.6426496958914676 11.4357889820106795   F   F   F
  2.0421438456677907 13.2518251085289691 11.4319196345809644   F   F   F
  2.0421438456677889  1.3296903987093915 14.1894984170098990   F   F   F
  0.0000000000000002  4.8474255551107372 14.1401436790459361   F   F   F
  2.0421438456677898  8.4574487664118401 14.1857013460173889   F   F   F
  0.0000000000000016 12.0681106597888697 14.1824774613856057   F   F   F
  2.0421438456677912 15.6066306947046414 14.2284825293061221   F   F   F
  4.0665886370387518  0.1693296196257522 17.9779770927366513   T   T   T
  6.1547681322452208  3.6947784826114134 18.0055316850234242   T   T   T
  4.0862961815890806  7.2534962848900886 17.9273071585270323   T   T   T
  6.1283712345865364 10.8562170309546122 17.9436420537835168   T   T   T
  4.0848523059574875 14.4661807662743822 17.9577058820054596   T   T   T
  4.0842876913355779  0.2142669468315959 12.7659617132631773   F   F   F
  6.1264315370033673  3.6518884938039395 12.7642927892138829   F   F   F
  4.0842876913355788  7.2499964862933393 12.8036870189989358   F   F   F
  6.1264315370033682 10.8513044406558397 12.8116264031586766   F   F   F
  4.0842876913355797 14.4607095096982530 12.8178549912503623   F   F   F
  4.1229150259440424  2.5056396024651755 16.8156234641522104   T   T   T
  4.0842876913355806 16.7790156635593526 16.6926773210052737   F   F   F
  4.0842876913355788  2.5210465448021719 11.5103523678952691   F   F   F
  4.0842876913355806 16.7790156635593526 11.5419680271730556   F   F   F
  6.1264315370033673  6.0509340132505098 16.5565334290201278   F   F   F
  4.0842876913355788  9.6426496958914676 16.5864982758428958   F   F   F
  6.1264315370033682 13.2518251085289691 16.5826289284131825   F   F   F
  6.1495956353435695  1.2931897912231594 19.3344830999430677   T   T   T
  4.1043401729165110  4.8907308635596465 19.3227885085695945   T   T   T
  6.1304580245865008  8.4540799508100513 19.3043100865163133   T   T   T
  4.0882881244048024 12.0854725556977041 19.3033179729090563   T   T   T
  6.1354364488295650 15.5863928548183921 19.3787458251510358   T   T   T
  6.1264315370033682  6.0509340132505081 11.4058241351879168   F   F   F
  4.0842876913355788  9.6426496958914676 11.4357889820106795   F   F   F
  6.1264315370033682 13.2518251085289691 11.4319196345809644   F   F   F
  6.1264315370033664  1.3296903987093915 14.1894984170098990   F   F   F
  4.0842876913355779  4.8474255551107372 14.1401436790459361   F   F   F
  6.1264315370033682  8.4574487664118401 14.1857013460173889   F   F   F
  4.0842876913355797 12.0681106597888697 14.1824774613856057   F   F   F
  6.1264315370033691 15.6066306947046414 14.2284825293061221   F   F   F
  6.2070761241875987  1.1894725988067181 21.1796877813345503   T   T   T
