Cu In Se O
 1.0000000000000000
    11.6458921600000043   -0.0000000000000000   -0.0000000000000007
     5.8229460800000021   13.0708099412073455   -1.0059749343232778
    -0.0000000000000000    0.0000000000000038   31.3945677355454151
Cu In Se O
8 16 32 1
Selective dynamics
Cartesian
  2.7195170458191615  1.5983545717850445 11.5646890994731599   F   F   F
  5.6309900858191622  5.9552912188541587 16.4617920772896298   F   F   F
  5.6309900858191630  0.5091204100177645 14.2647343219622158   F   F   F
  5.6309900858191622  4.3214399762032381 12.6632179771368705   F   F   F
  2.5674082622474135  4.6117287747351723 19.2436747258348433   T   T   T
  5.5163279544081396  2.1855185599338847 18.1664264195620326   T   T   T
  4.1213442651748355  4.9985329181894507 14.7688466640566407   F   F   F
  7.1406359064634906  6.2700906314537379 11.6168491879144309   F   F   F
  1.5074517782334798  2.4437826626844976 13.5336051088795699   F   F   F
  3.9315823134048431  3.5733536924852718 10.7335709476968333   F   F   F
  4.2446383118546382  2.9295809720537975 20.3163093951921603   T   T   T
  7.1406359064634888  4.0916223079191791 17.0169396328925444   F   F   F
  1.6070320215852181  0.2776206013432452 19.0228940887257387   T   T   T
  3.9315823134048431  1.3948853689507179 16.1336613926749450   F   F   F
  5.6309900858191622  8.1337595423887166 11.0617016323115216   F   F   F
  8.5424631258191628 12.4906961894578323 15.9588046101279915   F   F   F
  8.5424631258191646  7.0445253806214376 13.7617468548005775   F   F   F
  8.5424631258191628 10.8568449468069108 12.1602305099752321   F   F   F
  6.0533755623596743 11.1482359402619231 18.2692656775477360   T   T   T
  8.5338066827079153  8.6448497252393928 17.5927619814917868   T   T   T
  7.0328173051748362 11.5339378887931225 14.2658591968950024   F   F   F
 10.0521089464634912 12.8054956020574107 11.1138617207527926   F   F   F
  4.4189248182334806  8.9791876332881699 13.0306176417179316   F   F   F
  6.8430553534048446 10.1087586630889454 10.2305834805351950   F   F   F
  7.2306400385423384  9.4246797817197816 19.7372048869954178   T   T   T
 10.0521089464634894 10.6270272785228528 16.5139521657309061   F   F   F
  4.2632447859683991  6.6188311808026530 18.5194408920610520   T   T   T
  6.8430553534048446  7.9302903395543911 15.6306739255133067   F   F   F
  8.5424631258191646  1.5983545717850445 11.5646890994731599   F   F   F
 11.4539361658191652  5.9552912188541587 16.4617920772896298   F   F   F
 11.4539361658191652  0.5091204100177645 14.2647343219622158   F   F   F
 11.4539361658191652  4.3214399762032381 12.6632179771368705   F   F   F
  9.1477618986226723  4.7382727454319022 18.5880506846756717   T   T   T
 11.6052499512681848  2.0225985575667118 17.9274399485835438   T   T   T
  9.9442903451748386  4.9985329181894507 14.7688466640566407   F   F   F
 12.9635819864634918  6.2700906314537379 11.6168491879144309   F   F   F
  7.3303978582334821  2.4437826626844976 13.5336051088795699   F   F   F
  9.7545283934048452  3.5733536924852718 10.7335709476968333   F   F   F
 10.9190485527982197  3.4298323131865502 20.2694181052816695   T   T   T
 12.9635819864634918  4.0916223079191791 17.0169396328925444   F   F   F
  7.3481224946845032  0.3811086751039179 18.9579854976593971   T   T   T
  9.7545283934048452  1.3948853689507179 16.1336613926749450   F   F   F
 11.4539361658191652  8.1337595423887166 11.0617016323115216   F   F   F
 14.3654092058191658 12.4906961894578323 15.9588046101279915   F   F   F
 14.3654092058191658  7.0445253806214376 13.7617468548005775   F   F   F
 14.3654092058191658 10.8568449468069108 12.1602305099752321   F   F   F
 11.8974490368329739 11.2032648630231897 18.2564541141043435   T   T   T
 14.3858724128718372  8.5808430988721476 17.6246570229484512   T   T   T
 12.8557633851748392 11.5339378887931225 14.2658591968950006   F   F   F
 15.8750550264634942 12.8054956020574107 11.1138617207527908   F   F   F
 10.2418708982334827  8.9791876332881699 13.0306176417179316   F   F   F
 12.6660014334048476 10.1087586630889454 10.2305834805351950   F   F   F
 13.0739215825312272  9.4981169771292784 19.7293006945471951   T   T   T
 15.8750550264634924 10.6270272785228528 16.5139521657309061   F   F   F
 10.4158902871752979  6.9985552606839239 18.4927202752182573   T   T   T
 12.6660014334048476  7.9302903395543911 15.6306739255133067   F   F   F
 12.2932635424343459  4.5348680285553709 20.4450129826351983   T   T   T
