Pd Se Te H O
 1.0000000000000000
     8.1685753826711558    0.0000000000000000    0.0000000000000005
    -2.0421438456677867   17.7067390056748870    0.0254819193495702
     0.0000000000000000    0.0000000000000000   30.9042557629933086
Pd Se Te H O
20 8 32 1 1
Selective dynamics
Cartesian
  0.0475904822033051  0.1735286669658323 17.9981766804653631   T   T   T
  2.0880487600633675  3.6439668129995102 17.9750415583006991   T   T   T
  0.0044951265163042  7.2582007182722190 17.9265020909773689   T   T   T
  2.0444366196043076 10.8655505654764415 17.9454252220006332   T   T   T
  0.0030228383950563 14.4638655201065003 17.9366213641377250   T   T   T
  0.0000000000000003  0.2142669468315959 12.7659617132631773   F   F   F
  2.0421438456677894  3.6518884938039395 12.7642927892138829   F   F   F
  0.0000000000000007  7.2499964862933393 12.8036870189989358   F   F   F
  2.0421438456677903 10.8513044406558397 12.8116264031586766   F   F   F
  0.0000000000000020 14.4607095096982530 12.8178549912503623   F   F   F
  0.0355541494209327  2.5017548305027000 16.8014983741289115   T   T   T
  0.0000000000000022 16.7790156635593526 16.6926773210052737   F   F   F
  0.0000000000000010  2.5210465448021719 11.5103523678952691   F   F   F
  0.0000000000000022 16.7790156635593526 11.5419680271730556   F   F   F
  2.0421438456677894  6.0509340132505098 16.5565334290201278   F   F   F
  0.0000000000000011  9.6426496958914676 16.5864982758428958   F   F   F
  2.0421438456677907 13.2518251085289691 16.5826289284131825   F   F   F
  2.0901132001553662  1.3018424420912029 19.3765310199632630   T   T   T
  0.0644616350946308  4.8969906575428368 19.3145587672813619   T   T   T
  2.0479194074518383  8.4750507827335291 19.3088376834134188   T   T   T
  0.0025227853572589 12.0943094732614167 19.2991377304224017   T   T   T
  2.0353567874671477 15.5584429553687968 19.3888610207379131   T   T   T
  2.0421438456677898  6.0509340132505081 11.4058241351879168   F   F   F
  0.0000000000000011  9.6426496958914676 11.4357889820106795   F   F   F
  2.0421438456677907 13.2518251085289691 11.4319196345809644   F   F   F
  2.0421438456677889  1.3296903987093915 14.1894984170098990   F   F   F
  0.0000000000000002  4.8474255551107372 14.1401436790459361   F   F   F
  2.0421438456677898  8.4574487664118401 14.1857013460173889   F   F   F
  0.0000000000000016 12.0681106597888697 14.1824774613856057   F   F   F
  2.0421438456677912 15.6066306947046414 14.2284825293061221   F   F   F
  4.0888575850457194  0.1524977014136327 17.9844494082249327   T   T   T
  6.1780512294179006  3.7008076117261357 18.0157053571219414   T   T   T
  4.0870549861150387  7.2586967662024744 17.9290082468363785   T   T   T
  6.1280321955135104 10.8625856600910442 17.9485800366686838   T   T   T
  4.0874401058512051 14.4673146655061000 17.9521126952994088   T   T   T
  4.0842876913355779  0.2142669468315959 12.7659617132631773   F   F   F
  6.1264315370033673  3.6518884938039395 12.7642927892138829   F   F   F
  4.0842876913355788  7.2499964862933393 12.8036870189989358   F   F   F
  6.1264315370033682 10.8513044406558397 12.8116264031586766   F   F   F
  4.0842876913355797 14.4607095096982530 12.8178549912503623   F   F   F
  4.1749090805950466  2.4848735257096402 16.8073853085318632   T   T   T
  4.0842876913355806 16.7790156635593526 16.6926773210052737   F   F   F
  4.0842876913355788  2.5210465448021719 11.5103523678952691   F   F   F
  4.0842876913355806 16.7790156635593526 11.5419680271730556   F   F   F
  6.1264315370033673  6.0509340132505098 16.5565334290201278   F   F   F
  4.0842876913355788  9.6426496958914676 16.5864982758428958   F   F   F
  6.1264315370033682 13.2518251085289691 16.5826289284131825   F   F   F
  6.1613344098302996  1.2882655619497032 19.3290695705017832   T   T   T
  4.1012853373157325  4.8883228544716886 19.3108045387623335   T   T   T
  6.1310980015668815  8.4628877953724491 19.3079597067846471   T   T   T
  4.0869322424122076 12.0965063638326296 19.3008111019816653   T   T   T
  6.1434764218109157 15.5627496417087841 19.3746531719754600   T   T   T
  6.1264315370033682  6.0509340132505081 11.4058241351879168   F   F   F
  4.0842876913355788  9.6426496958914676 11.4357889820106795   F   F   F
  6.1264315370033682 13.2518251085289691 11.4319196345809644   F   F   F
  6.1264315370033664  1.3296903987093915 14.1894984170098990   F   F   F
  4.0842876913355779  4.8474255551107372 14.1401436790459361   F   F   F
  6.1264315370033682  8.4574487664118401 14.1857013460173889   F   F   F
  4.0842876913355797 12.0681106597888697 14.1824774613856057   F   F   F
  6.1264315370033691 15.6066306947046414 14.2284825293061221   F   F   F
  5.8518819330604490  1.6494242783905686 21.8284968679626452   T   T   T
  6.4254500477537038  1.0126140834881185 21.3532404562707683   T   T   T
