Ag P Pd H O                             
   1.00000000000000     
    11.9853458100000001    0.0000000000000000    0.0000000000000007
    -0.0000000000000007   11.9853458100000001    0.0000000000000007
     0.0000000000000000    0.0000000000000000   28.2068709599999998
   Ag   P    Pd   H    O 
     9     9    45     1     1
Selective dynamics
Direct
  0.1736896264265013  0.1634696491871139  0.5871389730682992   T   T   T
  0.0000000000000000  0.0000000000000000  0.4600769865098968   F   F   F
  0.9995312437769996  0.9969382709666661  0.5823394468322789   T   T   T
  0.1666666666666643  0.0000000000000000  0.5099595065099010   F   F   F
  0.0000000000000000  0.1666666666666643  0.5099595065099010   F   F   F
  0.1666666666666643  0.0000000000000000  0.4101944665098998   F   F   F
  0.0000000000000000  0.1666666666666643  0.4101944665098998   F   F   F
  0.1680155090856985  0.5022256209968106  0.5853021960440401   T   T   T
  0.0000000000000000  0.3333333333333357  0.4600769865098968   F   F   F
  0.0002383191229356  0.3380340762892828  0.5824255683142283   T   T   T
  0.1666666666666643  0.3333333333333357  0.5099595065099010   F   F   F
  0.0000000000000000  0.5000000000000000  0.5099595065099010   F   F   F
  0.1666666666666643  0.3333333333333357  0.4101944665098998   F   F   F
  0.0000000000000000  0.5000000000000000  0.4101944665098998   F   F   F
  0.1669402243211522  0.8332753451577659  0.5854121827484207   T   T   T
  0.0000000000000000  0.6666666666666643  0.4600769865098968   F   F   F
  0.9993371845470236  0.6670048724727096  0.5821824928129189   T   T   T
  0.1666666666666643  0.6666666666666643  0.5099595065099010   F   F   F
  0.0000000000000000  0.8333333333333357  0.5099595065099010   F   F   F
  0.1666666666666643  0.6666666666666643  0.4101944665098998   F   F   F
  0.0000000000000000  0.8333333333333357  0.4101944665098998   F   F   F
  0.4990753252986124  0.1673085768824762  0.5854250438728528   T   T   T
  0.3333333333333357  0.0000000000000000  0.4600769865098968   F   F   F
  0.3362461779420158  0.9971823189708360  0.5820708611127046   T   T   T
  0.5000000000000000  0.0000000000000000  0.5099595065099010   F   F   F
  0.3333333333333357  0.1666666666666643  0.5099595065099010   F   F   F
  0.5000000000000000  0.0000000000000000  0.4101944665098998   F   F   F
  0.3333333333333357  0.1666666666666643  0.4101944665098998   F   F   F
  0.5001720128381919  0.5021562592386388  0.5856153072808539   T   T   T
  0.3333333333333357  0.3333333333333357  0.4600769865098968   F   F   F
  0.3343729960200008  0.3356816592957657  0.5819405164589853   T   T   T
  0.5000000000000000  0.3333333333333357  0.5099595065099010   F   F   F
  0.3333333333333357  0.5000000000000000  0.5099595065099010   F   F   F
  0.5000000000000000  0.3333333333333357  0.4101944665098998   F   F   F
  0.3333333333333357  0.5000000000000000  0.4101944665098998   F   F   F
  0.5004990242182359  0.8316750155338895  0.5858943083672159   T   T   T
  0.3333333333333357  0.6666666666666643  0.4600769865098968   F   F   F
  0.3331335797347208  0.6675771809942432  0.5823732509533741   T   T   T
  0.5000000000000000  0.6666666666666643  0.5099595065099010   F   F   F
  0.3333333333333357  0.8333333333333357  0.5099595065099010   F   F   F
  0.5000000000000000  0.6666666666666643  0.4101944665098998   F   F   F
  0.3333333333333357  0.8333333333333357  0.4101944665098998   F   F   F
  0.8304029052133188  0.1663262258246192  0.5865465227514832   T   T   T
  0.6666666666666643  0.0000000000000000  0.4600769865098968   F   F   F
  0.6648674303658737  0.9997814527222246  0.5821773315018390   T   T   T
  0.8333333333333357  0.0000000000000000  0.5099595065099010   F   F   F
  0.6666666666666643  0.1666666666666643  0.5099595065099010   F   F   F
  0.8333333333333357  0.0000000000000000  0.4101944665098998   F   F   F
  0.6666666666666643  0.1666666666666643  0.4101944665098998   F   F   F
  0.8322623143769476  0.5005339382373961  0.5851260780917755   T   T   T
  0.6666666666666643  0.3333333333333357  0.4600769865098968   F   F   F
  0.6651701858735066  0.3343365623941921  0.5821200046668338   T   T   T
  0.8333333333333357  0.3333333333333357  0.5099595065099010   F   F   F
  0.6666666666666643  0.5000000000000000  0.5099595065099010   F   F   F
  0.8333333333333357  0.3333333333333357  0.4101944665098998   F   F   F
  0.6666666666666643  0.5000000000000000  0.4101944665098998   F   F   F
  0.8320801980184527  0.8338424102225304  0.5854406976444011   T   T   T
  0.6666666666666643  0.6666666666666643  0.4600769865098968   F   F   F
  0.6674840572994185  0.6668357987177913  0.5822902400461629   T   T   T
  0.8333333333333357  0.6666666666666643  0.5099595065099010   F   F   F
  0.6666666666666643  0.8333333333333357  0.5099595065099010   F   F   F
  0.8333333333333357  0.6666666666666643  0.4101944665098998   F   F   F
  0.6666666666666643  0.8333333333333357  0.4101944665098998   F   F   F
  0.0281679338936911  0.2356606570182365  0.6658523549622686   T   T   T
  0.0168556810270886  0.2051256041378622  0.6340429879811609   T   T   T
 
  0.00000000E+00  0.00000000E+00  0.00000000E+00
  0.00000000E+00  0.00000000E+00  0.00000000E+00
  0.00000000E+00  0.00000000E+00  0.00000000E+00
  0.00000000E+00  0.00000000E+00  0.00000000E+00
  0.00000000E+00  0.00000000E+00  0.00000000E+00
  0.00000000E+00  0.00000000E+00  0.00000000E+00
  0.00000000E+00  0.00000000E+00  0.00000000E+00
  0.00000000E+00  0.00000000E+00  0.00000000E+00
  0.00000000E+00  0.00000000E+00  0.00000000E+00
  0.00000000E+00  0.00000000E+00  0.00000000E+00
  0.00000000E+00  0.00000000E+00  0.00000000E+00
  0.00000000E+00  0.00000000E+00  0.00000000E+00
  0.00000000E+00  0.00000000E+00  0.00000000E+00
  0.00000000E+00  0.00000000E+00  0.00000000E+00
  0.00000000E+00  0.00000000E+00  0.00000000E+00
  0.00000000E+00  0.00000000E+00  0.00000000E+00
  0.00000000E+00  0.00000000E+00  0.00000000E+00
  0.00000000E+00  0.00000000E+00  0.00000000E+00
  0.00000000E+00  0.00000000E+00  0.00000000E+00
  0.00000000E+00  0.00000000E+00  0.00000000E+00
  0.00000000E+00  0.00000000E+00  0.00000000E+00
  0.00000000E+00  0.00000000E+00  0.00000000E+00
  0.00000000E+00  0.00000000E+00  0.00000000E+00
  0.00000000E+00  0.00000000E+00  0.00000000E+00
  0.00000000E+00  0.00000000E+00  0.00000000E+00
  0.00000000E+00  0.00000000E+00  0.00000000E+00
  0.00000000E+00  0.00000000E+00  0.00000000E+00
  0.00000000E+00  0.00000000E+00  0.00000000E+00
  0.00000000E+00  0.00000000E+00  0.00000000E+00
  0.00000000E+00  0.00000000E+00  0.00000000E+00
  0.00000000E+00  0.00000000E+00  0.00000000E+00
  0.00000000E+00  0.00000000E+00  0.00000000E+00
  0.00000000E+00  0.00000000E+00  0.00000000E+00
  0.00000000E+00  0.00000000E+00  0.00000000E+00
  0.00000000E+00  0.00000000E+00  0.00000000E+00
  0.00000000E+00  0.00000000E+00  0.00000000E+00
  0.00000000E+00  0.00000000E+00  0.00000000E+00
  0.00000000E+00  0.00000000E+00  0.00000000E+00
  0.00000000E+00  0.00000000E+00  0.00000000E+00
  0.00000000E+00  0.00000000E+00  0.00000000E+00
  0.00000000E+00  0.00000000E+00  0.00000000E+00
  0.00000000E+00  0.00000000E+00  0.00000000E+00
  0.00000000E+00  0.00000000E+00  0.00000000E+00
  0.00000000E+00  0.00000000E+00  0.00000000E+00
  0.00000000E+00  0.00000000E+00  0.00000000E+00
  0.00000000E+00  0.00000000E+00  0.00000000E+00
  0.00000000E+00  0.00000000E+00  0.00000000E+00
  0.00000000E+00  0.00000000E+00  0.00000000E+00
  0.00000000E+00  0.00000000E+00  0.00000000E+00
  0.00000000E+00  0.00000000E+00  0.00000000E+00
  0.00000000E+00  0.00000000E+00  0.00000000E+00
  0.00000000E+00  0.00000000E+00  0.00000000E+00
  0.00000000E+00  0.00000000E+00  0.00000000E+00
  0.00000000E+00  0.00000000E+00  0.00000000E+00
  0.00000000E+00  0.00000000E+00  0.00000000E+00
  0.00000000E+00  0.00000000E+00  0.00000000E+00
  0.00000000E+00  0.00000000E+00  0.00000000E+00
  0.00000000E+00  0.00000000E+00  0.00000000E+00
  0.00000000E+00  0.00000000E+00  0.00000000E+00
  0.00000000E+00  0.00000000E+00  0.00000000E+00
  0.00000000E+00  0.00000000E+00  0.00000000E+00
  0.00000000E+00  0.00000000E+00  0.00000000E+00
  0.00000000E+00  0.00000000E+00  0.00000000E+00
  0.00000000E+00  0.00000000E+00  0.00000000E+00
  0.00000000E+00  0.00000000E+00  0.00000000E+00
