Tl Sb Te O
 1.0000000000000000
     9.1309067117241938    0.0000000000000000    0.0000000000000006
    -0.0000000000000006    9.1309067117241938    0.0000000000000006
     0.0000000000000000    0.0000000000000000   41.5521886986188633
Tl Sb Te O
18 2 12 1
Selective dynamics
Cartesian
  5.8928102513462273  7.7672798459816166 19.4945616722334805   F   F   F
  3.2948691547884770  7.6251070125496261 22.0365108301928849   T   T   T
  0.0000000000000000  0.0000000000000000 24.2813001244330806   F   F   F
  6.2139234403023345  1.2039585525053920 21.9819860858777538   T   T   T
  3.2380964603779678  1.3636268657425770 19.4945616722334769   F   F   F
  7.7672798459816166  3.2380964603779665 19.4945616722334805   F   F   F
  1.3384005143125615  3.3351127985919558 22.0919537185626034   T   T   T
  7.6828335318047101  5.8809891894654918 22.0408215902051161   T   T   T
  1.3636268657425765  5.8928102513462282 19.4945616722334805   F   F   F
  1.4192193259409167  3.3643614259850709 26.8943613365385126   T   T   T
  7.8278949592965965  3.1998324370572817 15.1473932284684487   F   F   F
  4.5654533558620969  4.5654533558620969 17.3559353413299355   F   F   F
  1.3030117524275961  5.9310742746669129 15.1473932284684523   F   F   F
  7.6567225097271301  5.7182133561064274 26.4094959704137899   T   T   T
  3.3303292637286899  7.7329389556809627 26.4782218296071541   T   T   T
  5.9310742746669121  7.8278949592965965 15.1473932284684523   F   F   F
  3.1998324370572817  1.3030117524275966 15.1473932284684523   F   F   F
  5.7977411623533426  1.4329134473004661 26.4252863259074537   T   T   T
  0.0000000000000000  0.0000000000000000 17.4245864824248393   F   F   F
  4.5654533558620969  4.5654533558620969 24.3499512655279844   F   F   F
  0.0000000000000000  0.0000000000000000 20.4585034734081965   F   F   F
  3.1985376744855603  1.6355209337513350 24.2289635499332690   F   F   F
  7.4953857779728592  3.1985376744855594 24.2289635499332690   F   F   F
  4.5654533558620969  4.5654533558620969 20.8617956509629607   F   F   F
  1.6355209337513346  5.9323690372386348 24.2289635499332690   F   F   F
  5.9323690372386340  7.4953857779728592 24.2289635499332690   F   F   F
  4.5924008437644588  4.4534759348692532 27.2576136242281102   T   T   T
  7.7639910303476549  6.2009742896134332 17.3035987668301239   F   F   F
  2.9299324221107623  7.7639910303476549 17.3035987668301239   F   F   F
  0.0000000000000000  0.0000000000000000 13.9364308678598174   F   F   F
  6.2009742896134332  1.3669156813765386 17.3035987668301239   F   F   F
  1.3669156813765384  2.9299324221107628 17.3035987668301239   F   F   F
  2.1488010462066311  1.2227180652772984 25.8638935016836662   T   T   T
