As Rh O                                 
   1.00000000000000     
     8.1640480578242194    0.0000000000000000    0.0000000000000005
    -4.0820240289121124    7.0702730157927807    0.0000000000000005
     0.0000000000000000    0.0000000000000000   39.9955039544587123
   As   Rh   O 
    12    24     1
Selective dynamics
Direct
  0.9930867065092954  0.9877595215421309  0.5858478204405770   T   T   T
  0.1666666666666643  0.3333333333333357  0.4166666666666643   F   F   F
  0.3333333333333357  0.1666666666666643  0.5000000000000000   F   F   F
  0.1666666666666643  0.3333333333333357  0.4791666666666643   F   F   F
  0.3262957122175365  0.1636806939661142  0.5620864127569405   T   T   T
  0.5000000000000000  0.5000000000000000  0.3958333333333357   F   F   F
  0.3333333333333357  0.1666666666666643  0.4375000000000000   F   F   F
  0.0000000000000000  0.0000000000000000  0.5208333333333357   F   F   F
  0.1689352609242789  0.3361894385032969  0.6025840136560348   T   T   T
  0.0004450029611718  0.4987488358763628  0.5833640377051523   T   T   T
  0.1666666666666643  0.8333333333333357  0.4166666666666643   F   F   F
  0.3333333333333357  0.6666666666666643  0.5000000000000000   F   F   F
  0.1666666666666643  0.8333333333333357  0.4791666666666643   F   F   F
  0.3313142722667521  0.6640956095332982  0.5614400683732228   T   T   T
  0.5000000000000000  0.0000000000000000  0.3958333333333357   F   F   F
  0.3333333333333357  0.6666666666666643  0.4375000000000000   F   F   F
  0.0000000000000000  0.5000000000000000  0.5208333333333357   F   F   F
  0.1708898661687073  0.8277473725322011  0.6019059391623003   T   T   T
  0.5013762415621201  0.0025075014337190  0.5834360093579463   T   T   T
  0.6666666666666643  0.3333333333333357  0.4166666666666643   F   F   F
  0.8333333333333357  0.1666666666666643  0.5000000000000000   F   F   F
  0.6666666666666643  0.3333333333333357  0.4791666666666643   F   F   F
  0.8378127390082852  0.1639341816055691  0.5622966381161376   T   T   T
  0.0000000000000000  0.5000000000000000  0.3958333333333357   F   F   F
  0.8333333333333357  0.1666666666666643  0.4375000000000000   F   F   F
  0.5000000000000000  0.0000000000000000  0.5208333333333357   F   F   F
  0.6666991859022744  0.3331355342392186  0.6012209083189362   T   T   T
  0.4985603581156255  0.4984084999172893  0.5831393473600741   T   T   T
  0.6666666666666643  0.8333333333333357  0.4166666666666643   F   F   F
  0.8333333333333357  0.6666666666666643  0.5000000000000000   F   F   F
  0.6666666666666643  0.8333333333333357  0.4791666666666643   F   F   F
  0.8326387562525213  0.6648079464929069  0.5617682508022739   T   T   T
  0.0000000000000000  0.0000000000000000  0.3958333333333357   F   F   F
  0.8333333333333357  0.6666666666666643  0.4375000000000000   F   F   F
  0.5000000000000000  0.5000000000000000  0.5208333333333357   F   F   F
  0.6552519815097639  0.8260609298139201  0.6018421981346052   T   T   T
  0.0497911641640556  0.0849227510360180  0.6290247289802338   T   T   T
 
  0.00000000E+00  0.00000000E+00  0.00000000E+00
  0.00000000E+00  0.00000000E+00  0.00000000E+00
  0.00000000E+00  0.00000000E+00  0.00000000E+00
  0.00000000E+00  0.00000000E+00  0.00000000E+00
  0.00000000E+00  0.00000000E+00  0.00000000E+00
  0.00000000E+00  0.00000000E+00  0.00000000E+00
  0.00000000E+00  0.00000000E+00  0.00000000E+00
  0.00000000E+00  0.00000000E+00  0.00000000E+00
  0.00000000E+00  0.00000000E+00  0.00000000E+00
  0.00000000E+00  0.00000000E+00  0.00000000E+00
  0.00000000E+00  0.00000000E+00  0.00000000E+00
  0.00000000E+00  0.00000000E+00  0.00000000E+00
  0.00000000E+00  0.00000000E+00  0.00000000E+00
  0.00000000E+00  0.00000000E+00  0.00000000E+00
  0.00000000E+00  0.00000000E+00  0.00000000E+00
  0.00000000E+00  0.00000000E+00  0.00000000E+00
  0.00000000E+00  0.00000000E+00  0.00000000E+00
  0.00000000E+00  0.00000000E+00  0.00000000E+00
  0.00000000E+00  0.00000000E+00  0.00000000E+00
  0.00000000E+00  0.00000000E+00  0.00000000E+00
  0.00000000E+00  0.00000000E+00  0.00000000E+00
  0.00000000E+00  0.00000000E+00  0.00000000E+00
  0.00000000E+00  0.00000000E+00  0.00000000E+00
  0.00000000E+00  0.00000000E+00  0.00000000E+00
  0.00000000E+00  0.00000000E+00  0.00000000E+00
  0.00000000E+00  0.00000000E+00  0.00000000E+00
  0.00000000E+00  0.00000000E+00  0.00000000E+00
  0.00000000E+00  0.00000000E+00  0.00000000E+00
  0.00000000E+00  0.00000000E+00  0.00000000E+00
  0.00000000E+00  0.00000000E+00  0.00000000E+00
  0.00000000E+00  0.00000000E+00  0.00000000E+00
  0.00000000E+00  0.00000000E+00  0.00000000E+00
  0.00000000E+00  0.00000000E+00  0.00000000E+00
  0.00000000E+00  0.00000000E+00  0.00000000E+00
  0.00000000E+00  0.00000000E+00  0.00000000E+00
  0.00000000E+00  0.00000000E+00  0.00000000E+00
  0.00000000E+00  0.00000000E+00  0.00000000E+00
