As Rh O
 1.0000000000000000
     8.1640480578242194    0.0000000000000000    0.0000000000000005
    -4.0820240289121124    7.0702730157927807    0.0000000000000005
     0.0000000000000000    0.0000000000000000   39.9955039544587123
As Rh O
12 24 1
Selective dynamics
Cartesian
 -0.0064745331055729 -0.0865435245410708 23.4312788191420616   T   T   T
  0.0000000000000009  2.3567576719309287 16.6647933143577944   F   F   F
  2.0410120144560571  1.1783788359654639 19.9977519772293526   F   F   F
  0.0000000000000000  2.3567576719309233 19.1645123115114657   F   F   F
  1.9957453497672306  1.1572671937548620 22.4809293441678122   T   T   T
  2.0410120144560531  3.5351365078963894 15.8315536486399040   F   F   F
  2.0410120144560562  1.1783788359654639 17.4980329800756849   F   F   F
  0.0000000000000009  0.0000000000000000 20.8309916429472430   F   F   F
  0.0068622226099242  2.3769511152444016 24.1006513010736043   T   T   T
 -2.0322717068783724  3.5262904359547287 23.3319386769255281   T   T   T
 -2.0410120144560553  5.8918941798273190 16.6647933143577944   F   F   F
  0.0000000000000009  4.7135153438618538 19.9977519772293526   F   F   F
 -2.0410120144560562  5.8918941798273137 19.1645123115114657   F   F   F
 -0.0059885945811411  4.6953372679897223 22.4550784748127583   T   T   T
 -0.0000000000000031  7.0702730157927798 15.8315536486399040   F   F   F
  0.0000000000000000  4.7135153438618538 17.4980329800756849   F   F   F
 -2.0410120144560553  3.5351365078963903 20.8309916429472430   F   F   F
 -1.9837315845488339  5.8523999119078098 24.0735313699780917   T   T   T
  4.0830240500594313  0.0177287197238911 23.3348172194493593   T   T   T
  4.0820240289121106  2.3567576719309287 16.6647933143577944   F   F   F
  6.1230360433681668  1.1783788359654639 19.9977519772293526   F   F   F
  4.0820240289121097  2.3567576719309233 19.1645123115114657   F   F   F
  6.1707601962469649  1.1590594205719498 22.4893374133527644   T   T   T
  6.1230360433681632  3.5351365078963894 15.8315536486399040   F   F   F
  6.1230360433681659  1.1783788359654639 17.4980329800756849   F   F   F
  4.0820240289121106  0.0000000000000000 20.8309916429472430   F   F   F
  4.0830969381694544  2.3553591783332655 24.0461332161732670   T   T   T
  2.0357552505055994  3.5238841678069770 23.3229520733404563   T   T   T
  2.0410120144560544  5.8918941798273190 16.6647933143577944   F   F   F
  4.0820240289121106  4.7135153438618538 19.9977519772293526   F   F   F
  2.0410120144560535  5.8918941798273137 19.1645123115114657   F   F   F
  4.0839408086568127  4.7003736847734183 22.4682042964515816   T   T   T
  4.0820240289121070  7.0702730157927798 15.8315536486399040   F   F   F
  4.0820240289121097  4.7135153438618538 17.4980329800756849   F   F   F
  2.0410120144560544  3.5351365078963903 20.8309916429472430   F   F   F
  1.9775081021843537  5.8404763014640366 24.0709820154526923   T   T   T
  0.0598407467600430  0.6004270350768277 25.1581610353812550   T   T   T
