Bi Te Pb H O                            
   1.00000000000000     
     9.1435304498851977    0.0000000000000000    0.0000000000000006
    -4.5717652249426015    7.9185296498771365    0.0000000000000006
     0.0000000000000000    0.0000000000000000   55.8611204699999959
   Bi   Te   Pb   H    O 
     8    20     8     1     1
Selective dynamics
Direct
  0.3333333333333357  0.1666666666666643  0.5365187100000028   F   F   F
  0.1666666666666643  0.3333333333333357  0.4634812899999972   F   F   F
  0.1666666666666643  0.3333333333333357  0.3575093099999975   F   F   F
  0.1666666666666643  0.3333333333333357  0.5671627899999976   F   F   F
  0.3333333333333357  0.1666666666666643  0.4328372100000024   F   F   F
  0.0000000000000000  0.0000000000000000  0.5000000000000000   F   F   F
  0.3234629243313591  0.1447676030575806  0.6474946153712722   T   T   T
  0.9865886390273957  0.9505263240548913  0.6230083109736029   T   T   T
  0.0000000000000000  0.0000000000000000  0.3864436799999993   F   F   F
  0.3333333333333357  0.6666666666666643  0.5365187100000028   F   F   F
  0.1666666666666643  0.8333333333333357  0.4634812899999972   F   F   F
  0.1666666666666643  0.8333333333333357  0.3575093099999975   F   F   F
  0.1666666666666643  0.8333333333333357  0.5671627899999976   F   F   F
  0.3333333333333357  0.6666666666666643  0.4328372100000024   F   F   F
  0.0000000000000000  0.5000000000000000  0.5000000000000000   F   F   F
  0.3661527790540546  0.6778233629102530  0.6476362741735997   T   T   T
  0.0519674516799071  0.5251397002751830  0.6155679437711683   T   T   T
  0.0000000000000000  0.5000000000000000  0.3864436799999993   F   F   F
  0.8333333333333357  0.1666666666666643  0.5365187100000028   F   F   F
  0.6666666666666643  0.3333333333333357  0.4634812899999972   F   F   F
  0.6666666666666643  0.3333333333333357  0.3575093099999975   F   F   F
  0.6666666666666643  0.3333333333333357  0.5671627899999976   F   F   F
  0.8333333333333357  0.1666666666666643  0.4328372100000024   F   F   F
  0.5000000000000000  0.0000000000000000  0.5000000000000000   F   F   F
  0.8329659637264015  0.2627950518917856  0.6528785505433348   T   T   T
  0.5206692516828824  0.0145192903147020  0.6197834991007909   T   T   T
  0.5000000000000000  0.0000000000000000  0.3864436799999993   F   F   F
  0.8333333333333357  0.6666666666666643  0.5365187100000028   F   F   F
  0.6666666666666643  0.8333333333333357  0.4634812899999972   F   F   F
  0.6666666666666643  0.8333333333333357  0.3575093099999975   F   F   F
  0.6666666666666643  0.8333333333333357  0.5671627899999976   F   F   F
  0.8333333333333357  0.6666666666666643  0.4328372100000024   F   F   F
  0.5000000000000000  0.5000000000000000  0.5000000000000000   F   F   F
  0.8186040499865825  0.5908434731077605  0.6504430172306854   T   T   T
  0.4993223866509169  0.4816836683838659  0.6183751226195469   T   T   T
  0.5000000000000000  0.5000000000000000  0.3864436799999993   F   F   F
  0.9637003559852673  0.0699491702556756  0.6677857193551020   T   T   T
  0.8814373610183139  0.0390915582183879  0.6548155702994904   T   T   T
 
  0.00000000E+00  0.00000000E+00  0.00000000E+00
  0.00000000E+00  0.00000000E+00  0.00000000E+00
  0.00000000E+00  0.00000000E+00  0.00000000E+00
  0.00000000E+00  0.00000000E+00  0.00000000E+00
  0.00000000E+00  0.00000000E+00  0.00000000E+00
  0.00000000E+00  0.00000000E+00  0.00000000E+00
  0.00000000E+00  0.00000000E+00  0.00000000E+00
  0.00000000E+00  0.00000000E+00  0.00000000E+00
  0.00000000E+00  0.00000000E+00  0.00000000E+00
  0.00000000E+00  0.00000000E+00  0.00000000E+00
  0.00000000E+00  0.00000000E+00  0.00000000E+00
  0.00000000E+00  0.00000000E+00  0.00000000E+00
  0.00000000E+00  0.00000000E+00  0.00000000E+00
  0.00000000E+00  0.00000000E+00  0.00000000E+00
  0.00000000E+00  0.00000000E+00  0.00000000E+00
  0.00000000E+00  0.00000000E+00  0.00000000E+00
  0.00000000E+00  0.00000000E+00  0.00000000E+00
  0.00000000E+00  0.00000000E+00  0.00000000E+00
  0.00000000E+00  0.00000000E+00  0.00000000E+00
  0.00000000E+00  0.00000000E+00  0.00000000E+00
  0.00000000E+00  0.00000000E+00  0.00000000E+00
  0.00000000E+00  0.00000000E+00  0.00000000E+00
  0.00000000E+00  0.00000000E+00  0.00000000E+00
  0.00000000E+00  0.00000000E+00  0.00000000E+00
  0.00000000E+00  0.00000000E+00  0.00000000E+00
  0.00000000E+00  0.00000000E+00  0.00000000E+00
  0.00000000E+00  0.00000000E+00  0.00000000E+00
  0.00000000E+00  0.00000000E+00  0.00000000E+00
  0.00000000E+00  0.00000000E+00  0.00000000E+00
  0.00000000E+00  0.00000000E+00  0.00000000E+00
  0.00000000E+00  0.00000000E+00  0.00000000E+00
  0.00000000E+00  0.00000000E+00  0.00000000E+00
  0.00000000E+00  0.00000000E+00  0.00000000E+00
  0.00000000E+00  0.00000000E+00  0.00000000E+00
  0.00000000E+00  0.00000000E+00  0.00000000E+00
  0.00000000E+00  0.00000000E+00  0.00000000E+00
  0.00000000E+00  0.00000000E+00  0.00000000E+00
  0.00000000E+00  0.00000000E+00  0.00000000E+00
