Bi Te Pb H O
 1.0000000000000000
     9.1435304498851977    0.0000000000000000    0.0000000000000006
    -4.5717652249426015    7.9185296498771365    0.0000000000000006
     0.0000000000000000    0.0000000000000000   55.8611204699999959
Bi Te Pb H O
8 20 8 1 1
Selective dynamics
Cartesian
  2.2858826124712985  1.3197549416461900 29.9705362937189967   F   F   F
 -0.0000000000000009  2.6395098832923791 25.8905841762810063   F   F   F
 -0.0000000000000009  2.6395098832923791 19.9708706350565741   F   F   F
 -0.0000000000000009  2.6395098832923791 31.6823489382913088   F   F   F
  2.2858826124712985  1.3197549416461896 24.1787715317086871   F   F   F
  0.0000000000000000  0.0000000000000000 27.9305602349999980   F   F   F
  2.2957496046757777  1.1463465571531031 36.1697747129309946   T   T   T
  0.1035548438085243 -0.3917587698597345 34.8019423131074888   T   T   T
  0.0000000000000000  0.0000000000000000 21.5871769633501280   F   F   F
 -0.0000000000000022  5.2790197665847582 29.9705362937189967   F   F   F
 -2.2858826124713016  6.5987747082309474 25.8905841762810063   F   F   F
 -2.2858826124713016  6.5987747082309474 19.9708706350565741   F   F   F
 -2.2858826124713016  6.5987747082309474 31.6823489382913088   F   F   F
 -0.0000000000000022  5.2790197665847582 24.1787715317086871   F   F   F
 -2.2858826124713008  3.9592648249385682 27.9305602349999980   F   F   F
  0.2490798053840968  5.3673643965842412 36.1776879323533294   T   T   T
 -1.9256494431166860  4.1583342869566557 34.3863150644713329   T   T   T
 -2.2858826124713008  3.9592648249385682 21.5871769633501280   F   F   F
  6.8576478374138974  1.3197549416461900 29.9705362937189967   F   F   F
  4.5717652249425980  2.6395098832923791 25.8905841762810063   F   F   F
  4.5717652249425980  2.6395098832923791 19.9708706350565741   F   F   F
  4.5717652249425980  2.6395098832923791 31.6823489382913088   F   F   F
  6.8576478374138974  1.3197549416461896 24.1787715317086871   F   F   F
  4.5717652249425988  0.0000000000000000 27.9305602349999980   F   F   F
  6.4148123735244740  2.0809504102460976 36.4705273641802350   T   T   T
  4.6943763705297421  0.1149714308521652 34.6218007085874575   T   T   T
  4.5717652249425988  0.0000000000000000 21.5871769633501280   F   F   F
  4.5717652249425971  5.2790197665847582 29.9705362937189967   F   F   F
  2.2858826124712972  6.5987747082309474 25.8905841762810063   F   F   F
  2.2858826124712972  6.5987747082309474 19.9708706350565741   F   F   F
  2.2858826124712972  6.5987747082309474 31.6823489382913088   F   F   F
  4.5717652249425971  5.2790197665847582 24.1787715317086871   F   F   F
  2.2858826124712981  3.9592648249385682 27.9305602349999980   F   F   F
  4.7837334137132945  4.6786115602401761 36.3344757443937496   T   T   T
  2.3634248021118514  3.8142264099592147 34.5431272203015993   T   T   T
  2.2858826124712981  3.9592648249385682 21.5871769633501280   F   F   F
 -0.6516980844571665  0.5538945786538531 37.3032585170409163   T   T   T
 -1.2627985261994303  0.3095476628122246 36.5787314581314007   T   T   T
