Tl P Pd O
 1.0000000000000000
     8.0763064799999995    0.0000000000000000    0.0000000000000005
    -0.0000000000000005    8.0763064799999995    0.0000000000000005
     0.0000000000000000    0.0000000000000000   28.5967706799999988
Tl P Pd O
4 4 20 1
Selective dynamics
Cartesian
  1.9950512656365973  2.1221290657455611 16.6674129964187863   T   T   T
  0.0000000000000000  0.0000000000000000 12.8507521210279325   F   F   F
 -0.0000000000000001  2.0190766199999999 11.4423599496751791   F   F   F
 -0.0000000000000001  2.0190766199999999 14.2591442923806859   F   F   F
  2.0190766199999999  0.0000000000000000 11.4423599496751791   F   F   F
  2.0190766199999999  0.0000000000000000 14.2591442923806859   F   F   F
 -0.0118004865362309 -0.0047267447066588 16.3282445048783096   T   T   T
  1.9992090542115544  5.9324135412007237 16.6510342926005954   T   T   T
 -0.0000000000000002  4.0381532399999998 12.8507521210279325   F   F   F
 -0.0000000000000004  6.0572298599999996 11.4423599496751791   F   F   F
 -0.0000000000000004  6.0572298599999996 14.2591442923806859   F   F   F
  2.0190766199999994  4.0381532399999998 11.4423599496751791   F   F   F
  2.0190766199999994  4.0381532399999998 14.2591442923806859   F   F   F
 -0.0500746683683249  4.0352560591503135 16.3302456511985632   T   T   T
  6.0565485932224803  1.9886149599484853 16.5589146963916640   T   T   T
  4.0381532399999998  0.0000000000000000 12.8507521210279325   F   F   F
  4.0381532399999998  2.0190766199999999 11.4423599496751791   F   F   F
  4.0381532399999998  2.0190766199999999 14.2591442923806859   F   F   F
  6.0572298599999996  0.0000000000000000 11.4423599496751791   F   F   F
  6.0572298599999996  0.0000000000000000 14.2591442923806859   F   F   F
  4.0757590206424794 -0.0004654442018364 16.3421959744767058   T   T   T
  6.0527427807696697  6.0670959672261162 16.5563238322604569   T   T   T
  4.0381532399999998  4.0381532399999998 12.8507521210279325   F   F   F
  4.0381532399999998  6.0572298599999996 11.4423599496751791   F   F   F
  4.0381532399999998  6.0572298599999996 14.2591442923806859   F   F   F
  6.0572298599999996  4.0381532399999998 11.4423599496751791   F   F   F
  6.0572298599999996  4.0381532399999998 14.2591442923806859   F   F   F
  4.0676257335520205  4.0301300131626050 16.3298227799926075   T   T   T
  2.2102992388027869 -0.0165231805575114 17.6147110333262376   T   T   T
