Te                                      
   1.00000000000000     
     9.6829936960780039    0.0000000000000000    0.0000000000000006
    -0.0000000000000006    9.6829936960780039    0.0000000000000006
     0.0000000000000000    0.0000000000000000   32.2766456535933486
   Te
    27
Selective dynamics
Direct
  0.0000000000000000  0.0000000000000000  0.3999999999999986   F   F   F
  0.0000000000000000  0.0000000000000000  0.5000000000000000   F   F   F
  0.9999910972539539  0.0003906295297966  0.5931082841629518   T   T   T
  0.0000000000000000  0.3333333333333357  0.3999999999999986   F   F   F
  0.0000000000000000  0.3333333333333357  0.5000000000000000   F   F   F
  0.0002981034347016  0.3333330593793917  0.5932200396408405   T   T   T
  0.0000000000000000  0.6666666666666643  0.3999999999999986   F   F   F
  0.0000000000000000  0.6666666666666643  0.5000000000000000   F   F   F
  0.0000699121228465  0.6662586167352060  0.5931043387449790   T   T   T
  0.3333333333333357  0.0000000000000000  0.3999999999999986   F   F   F
  0.3333333333333357  0.0000000000000000  0.5000000000000000   F   F   F
  0.3333567613746169  0.0002227493076887  0.5931877618337609   T   T   T
  0.3333333333333357  0.3333333333333357  0.3999999999999986   F   F   F
  0.3333333333333357  0.3333333333333357  0.5000000000000000   F   F   F
  0.3333372143920528  0.3332871455991722  0.5933556152455708   T   T   T
  0.3333333333333357  0.6666666666666643  0.3999999999999986   F   F   F
  0.3333333333333357  0.6666666666666643  0.5000000000000000   F   F   F
  0.3333333551017645  0.6664526807927587  0.5931911707911155   T   T   T
  0.6666666666666643  0.0000000000000000  0.3999999999999986   F   F   F
  0.6666666666666643  0.0000000000000000  0.5000000000000000   F   F   F
  0.6666196756837124  0.0003916237784480  0.5931102423798293   T   T   T
  0.6666666666666643  0.3333333333333357  0.3999999999999986   F   F   F
  0.6666666666666643  0.3333333333333357  0.5000000000000000   F   F   F
  0.6663579068785879  0.3333506634366117  0.5932218267656708   T   T   T
  0.6666666666666643  0.6666666666666643  0.3999999999999986   F   F   F
  0.6666666666666643  0.6666666666666643  0.5000000000000000   F   F   F
  0.6666023594234431  0.6662360553901223  0.5931085016600477   T   T   T
 
  0.00000000E+00  0.00000000E+00  0.00000000E+00
  0.00000000E+00  0.00000000E+00  0.00000000E+00
  0.00000000E+00  0.00000000E+00  0.00000000E+00
  0.00000000E+00  0.00000000E+00  0.00000000E+00
  0.00000000E+00  0.00000000E+00  0.00000000E+00
  0.00000000E+00  0.00000000E+00  0.00000000E+00
  0.00000000E+00  0.00000000E+00  0.00000000E+00
  0.00000000E+00  0.00000000E+00  0.00000000E+00
  0.00000000E+00  0.00000000E+00  0.00000000E+00
  0.00000000E+00  0.00000000E+00  0.00000000E+00
  0.00000000E+00  0.00000000E+00  0.00000000E+00
  0.00000000E+00  0.00000000E+00  0.00000000E+00
  0.00000000E+00  0.00000000E+00  0.00000000E+00
  0.00000000E+00  0.00000000E+00  0.00000000E+00
  0.00000000E+00  0.00000000E+00  0.00000000E+00
  0.00000000E+00  0.00000000E+00  0.00000000E+00
  0.00000000E+00  0.00000000E+00  0.00000000E+00
  0.00000000E+00  0.00000000E+00  0.00000000E+00
  0.00000000E+00  0.00000000E+00  0.00000000E+00
  0.00000000E+00  0.00000000E+00  0.00000000E+00
  0.00000000E+00  0.00000000E+00  0.00000000E+00
  0.00000000E+00  0.00000000E+00  0.00000000E+00
  0.00000000E+00  0.00000000E+00  0.00000000E+00
  0.00000000E+00  0.00000000E+00  0.00000000E+00
  0.00000000E+00  0.00000000E+00  0.00000000E+00
  0.00000000E+00  0.00000000E+00  0.00000000E+00
  0.00000000E+00  0.00000000E+00  0.00000000E+00
