Te
 1.0000000000000000
     9.6829936960780039    0.0000000000000000    0.0000000000000006
    -0.0000000000000006    9.6829936960780039    0.0000000000000006
     0.0000000000000000    0.0000000000000000   32.2766456535933486
Te
27
Selective dynamics
Cartesian
  0.0000000000000000  0.0000000000000000 12.9106582614373391   F   F   F
  0.0000000000000000  0.0000000000000000 16.1383228267966743   F   F   F
 -0.0000862052338562  0.0037824632745469 19.1435459221383510   T   T   T
 -0.0000000000000002  3.2276645653593348 12.9106582614373391   F   F   F
 -0.0000000000000002  3.2276645653593348 16.1383228267966743   F   F   F
  0.0028865336789748  3.2276619126650274 19.1471530140979169   T   T   T
 -0.0000000000000004  6.4553291307186695 12.9106582614373391   F   F   F
 -0.0000000000000004  6.4553291307186695 16.1383228267966743   F   F   F
  0.0006769586448168  6.4513779858046432 19.1434185772804497   T   T   T
  3.2276645653593348  0.0000000000000000 12.9106582614373391   F   F   F
  3.2276645653593348  0.0000000000000000 16.1383228267966743   F   F   F
  3.2278914189353993  0.0021568801421381 19.1461111947564362   T   T   T
  3.2276645653593348  3.2276645653593348 12.9106582614373391   F   F   F
  3.2276645653593348  3.2276645653593348 16.1383228267966743   F   F   F
  3.2277021456264259  3.2272173298205939 19.1515289398511825   T   T   T
  3.2276645653593343  6.4553291307186695 12.9106582614373391   F   F   F
  3.2276645653593343  6.4553291307186695 16.1383228267966743   F   F   F
  3.2276647761429040  6.4532571068505744 19.1462212244650303   T   T   T
  6.4553291307186695  0.0000000000000000 12.9106582614373391   F   F   F
  6.4553291307186695  0.0000000000000000 16.1383228267966743   F   F   F
  6.4548741173269404  0.0037920905779174 19.1436091268105386   T   T   T
  6.4553291307186695  3.2276645653593348 12.9106582614373391   F   F   F
  6.4553291307186695  3.2276645653593348 16.1383228267966743   F   F   F
  6.4523394116370723  3.2278323726401275 19.1472106964928983   T   T   T
  6.4553291307186695  6.4553291307186695 12.9106582614373391   F   F   F
  6.4553291307186695  6.4553291307186695 16.1383228267966743   F   F   F
  6.4547064440878925  6.4511595244424056 19.1435529422150879   T   T   T
