Ag Au H O                               
   1.00000000000000     
    11.8860601004442117    0.0000000000000000    0.0000000000000007
    -5.9430300502221050   10.2936299978933050    0.0000000000000007
     0.0000000000000000    0.0000000000000000   34.0989863200000016
   Ag   Au   H    O 
    48    16     1     1
Selective dynamics
Direct
  0.4168256549999967  0.3336513100000005  0.3928571428571459   F   F   F
  0.1663486899999995  0.0831743450000033  0.3928571428571459   F   F   F
  0.4168256549999967  0.0831743450000033  0.3928571428571459   F   F   F
  0.0831743450000033  0.1663486899999995  0.4642857142857153   F   F   F
  0.3336513100000005  0.4168256549999967  0.4642857142857153   F   F   F
  0.0831743450000033  0.4168256549999967  0.4642857142857153   F   F   F
  0.3333333333333357  0.1666666666666643  0.4642857142857153   F   F   F
  0.1666666666666643  0.3333333333333357  0.3928571428571459   F   F   F
  0.4168256549999967  0.3336513100000005  0.5357142857142847   F   F   F
  0.1663486899999995  0.0831743450000033  0.5357142857142847   F   F   F
  0.4168256549999967  0.0831743450000033  0.5357142857142847   F   F   F
  0.0832128879600873  0.1667691437227532  0.6076108653474463   T   T   T
  0.3330214481226506  0.4164525306259108  0.6076692803335604   T   T   T
  0.0831896896249518  0.4164422966997492  0.6076429312199352   T   T   T
  0.3302457744242062  0.1689885019069308  0.6057419734936786   T   T   T
  0.1666666666666643  0.3333333333333357  0.5357142857142847   F   F   F
  0.4168256549999967  0.8336513100000005  0.3928571428571459   F   F   F
  0.1663486899999995  0.5831743450000033  0.3928571428571459   F   F   F
  0.4168256549999967  0.5831743450000033  0.3928571428571459   F   F   F
  0.0831743450000033  0.6663486899999995  0.4642857142857153   F   F   F
  0.3336513100000005  0.9168256549999967  0.4642857142857153   F   F   F
  0.0831743450000033  0.9168256549999967  0.4642857142857153   F   F   F
  0.3333333333333357  0.6666666666666643  0.4642857142857153   F   F   F
  0.1666666666666643  0.8333333333333357  0.3928571428571459   F   F   F
  0.4168256549999967  0.8336513100000005  0.5357142857142847   F   F   F
  0.1663486899999995  0.5831743450000033  0.5357142857142847   F   F   F
  0.4168256549999967  0.5831743450000033  0.5357142857142847   F   F   F
  0.0797151797551265  0.6634278400898665  0.6070032358945809   T   T   T
  0.3173264566928680  0.9085198028195265  0.6075845562652873   T   T   T
  0.0798271512883630  0.9162066359998065  0.6069990712246920   T   T   T
  0.3302109798213024  0.6610247404538754  0.6057686261388753   T   T   T
  0.1666666666666643  0.8333333333333357  0.5357142857142847   F   F   F
  0.9168256549999967  0.3336513100000005  0.3928571428571459   F   F   F
  0.6663486899999995  0.0831743450000033  0.3928571428571459   F   F   F
  0.9168256549999967  0.0831743450000033  0.3928571428571459   F   F   F
  0.5831743450000033  0.1663486899999995  0.4642857142857153   F   F   F
  0.8336513100000005  0.4168256549999967  0.4642857142857153   F   F   F
  0.5831743450000033  0.4168256549999967  0.4642857142857153   F   F   F
  0.8333333333333357  0.1666666666666643  0.4642857142857153   F   F   F
  0.6666666666666643  0.3333333333333357  0.3928571428571459   F   F   F
  0.9168256549999967  0.3336513100000005  0.5357142857142847   F   F   F
  0.6663486899999995  0.0831743450000033  0.5357142857142847   F   F   F
  0.9168256549999967  0.0831743450000033  0.5357142857142847   F   F   F
  0.5905033230202363  0.1817963317716291  0.6078087227828277   T   T   T
  0.8362434164729891  0.4196650856026167  0.6070482147539948   T   T   T
  0.5831881678088138  0.4197557436692136  0.6070442363282424   T   T   T
  0.8381777992890136  0.1690246903942025  0.6057503214952646   T   T   T
  0.6666666666666643  0.3333333333333357  0.5357142857142847   F   F   F
  0.9168256549999967  0.8336513100000005  0.3928571428571459   F   F   F
  0.6663486899999995  0.5831743450000033  0.3928571428571459   F   F   F
  0.9168256549999967  0.5831743450000033  0.3928571428571459   F   F   F
  0.5831743450000033  0.6663486899999995  0.4642857142857153   F   F   F
  0.8336513100000005  0.9168256549999967  0.4642857142857153   F   F   F
  0.5831743450000033  0.9168256549999967  0.4642857142857153   F   F   F
  0.8333333333333357  0.6666666666666643  0.4642857142857153   F   F   F
  0.6666666666666643  0.8333333333333357  0.3928571428571459   F   F   F
  0.9168256549999967  0.8336513100000005  0.5357142857142847   F   F   F
  0.6663486899999995  0.5831743450000033  0.5357142857142847   F   F   F
  0.9168256549999967  0.5831743450000033  0.5357142857142847   F   F   F
  0.5832334919665456  0.6632388039468324  0.6070381305638506   T   T   T
  0.8361753635087155  0.9164406199948374  0.6070300911850666   T   T   T
  0.5902921239934642  0.9084889569466128  0.6077516415484325   T   T   T
  0.8330368601197833  0.6664045216147372  0.6070101895605688   T   T   T
  0.6666666666666643  0.8333333333333357  0.5357142857142847   F   F   F
  0.4968098115165418  0.9978154302579014  0.6759412620472176   T   T   T
  0.4991343883265884  0.9995049427480467  0.6473598154311375   T   T   T
 
  0.00000000E+00  0.00000000E+00  0.00000000E+00
  0.00000000E+00  0.00000000E+00  0.00000000E+00
  0.00000000E+00  0.00000000E+00  0.00000000E+00
  0.00000000E+00  0.00000000E+00  0.00000000E+00
  0.00000000E+00  0.00000000E+00  0.00000000E+00
  0.00000000E+00  0.00000000E+00  0.00000000E+00
  0.00000000E+00  0.00000000E+00  0.00000000E+00
  0.00000000E+00  0.00000000E+00  0.00000000E+00
  0.00000000E+00  0.00000000E+00  0.00000000E+00
  0.00000000E+00  0.00000000E+00  0.00000000E+00
  0.00000000E+00  0.00000000E+00  0.00000000E+00
  0.00000000E+00  0.00000000E+00  0.00000000E+00
  0.00000000E+00  0.00000000E+00  0.00000000E+00
  0.00000000E+00  0.00000000E+00  0.00000000E+00
  0.00000000E+00  0.00000000E+00  0.00000000E+00
  0.00000000E+00  0.00000000E+00  0.00000000E+00
  0.00000000E+00  0.00000000E+00  0.00000000E+00
  0.00000000E+00  0.00000000E+00  0.00000000E+00
  0.00000000E+00  0.00000000E+00  0.00000000E+00
  0.00000000E+00  0.00000000E+00  0.00000000E+00
  0.00000000E+00  0.00000000E+00  0.00000000E+00
  0.00000000E+00  0.00000000E+00  0.00000000E+00
  0.00000000E+00  0.00000000E+00  0.00000000E+00
  0.00000000E+00  0.00000000E+00  0.00000000E+00
  0.00000000E+00  0.00000000E+00  0.00000000E+00
  0.00000000E+00  0.00000000E+00  0.00000000E+00
  0.00000000E+00  0.00000000E+00  0.00000000E+00
  0.00000000E+00  0.00000000E+00  0.00000000E+00
  0.00000000E+00  0.00000000E+00  0.00000000E+00
  0.00000000E+00  0.00000000E+00  0.00000000E+00
  0.00000000E+00  0.00000000E+00  0.00000000E+00
  0.00000000E+00  0.00000000E+00  0.00000000E+00
  0.00000000E+00  0.00000000E+00  0.00000000E+00
  0.00000000E+00  0.00000000E+00  0.00000000E+00
  0.00000000E+00  0.00000000E+00  0.00000000E+00
  0.00000000E+00  0.00000000E+00  0.00000000E+00
  0.00000000E+00  0.00000000E+00  0.00000000E+00
  0.00000000E+00  0.00000000E+00  0.00000000E+00
  0.00000000E+00  0.00000000E+00  0.00000000E+00
  0.00000000E+00  0.00000000E+00  0.00000000E+00
  0.00000000E+00  0.00000000E+00  0.00000000E+00
  0.00000000E+00  0.00000000E+00  0.00000000E+00
  0.00000000E+00  0.00000000E+00  0.00000000E+00
  0.00000000E+00  0.00000000E+00  0.00000000E+00
  0.00000000E+00  0.00000000E+00  0.00000000E+00
  0.00000000E+00  0.00000000E+00  0.00000000E+00
  0.00000000E+00  0.00000000E+00  0.00000000E+00
  0.00000000E+00  0.00000000E+00  0.00000000E+00
  0.00000000E+00  0.00000000E+00  0.00000000E+00
  0.00000000E+00  0.00000000E+00  0.00000000E+00
  0.00000000E+00  0.00000000E+00  0.00000000E+00
  0.00000000E+00  0.00000000E+00  0.00000000E+00
  0.00000000E+00  0.00000000E+00  0.00000000E+00
  0.00000000E+00  0.00000000E+00  0.00000000E+00
  0.00000000E+00  0.00000000E+00  0.00000000E+00
  0.00000000E+00  0.00000000E+00  0.00000000E+00
  0.00000000E+00  0.00000000E+00  0.00000000E+00
  0.00000000E+00  0.00000000E+00  0.00000000E+00
  0.00000000E+00  0.00000000E+00  0.00000000E+00
  0.00000000E+00  0.00000000E+00  0.00000000E+00
  0.00000000E+00  0.00000000E+00  0.00000000E+00
  0.00000000E+00  0.00000000E+00  0.00000000E+00
  0.00000000E+00  0.00000000E+00  0.00000000E+00
  0.00000000E+00  0.00000000E+00  0.00000000E+00
  0.00000000E+00  0.00000000E+00  0.00000000E+00
  0.00000000E+00  0.00000000E+00  0.00000000E+00
