Ag Te H O
 1.0000000000000000
    10.3012648840885692    0.0000000000000000    0.0000000000000006
    -0.0000000000000010   15.5485699999999998    0.0000000000000010
     0.0000000000000000    0.0000000000000000   30.6628962163454162
Ag Te H O
32 16 1 1
Selective dynamics
Cartesian
  0.0120497591033198  2.5665959753748040 17.4086011564754664   T   T   T
 -0.0000000000000004  6.6703893951380007 12.3220500792203929   F   F   F
 -0.0000000000000001  1.1038956048619994 14.5079841100818463   F   F   F
 -0.0000000000000003  4.9910381048619996 16.1549121062635699   F   F   F
  2.5753162210221423  2.7832468951380007 14.5079841100818463   F   F   F
  2.5753162210221419  6.6703893951380007 16.1549121062635699   F   F   F
  2.5750392640353472  1.3400148246715518 17.4341294994478595   T   T   T
  2.5753162210221419  4.9910381048619996 12.3220500792203929   F   F   F
 -0.0192702995482250 -0.1860401519516017 17.4796491365503073   T   T   T
  2.6135932724766846  4.1162063215017675 17.5103685803713063   T   T   T
  2.5753162210221423  0.0000000000000000 13.4150170946511196   F   F   F
 -0.0000000000000002  3.8871424999999995 13.4150170946511196   F   F   F
  0.0517225746043544 10.7059483415733627 18.4756718895910090   T   T   T
 -0.0000000000000009 14.4446743951380014 12.3220500792203929   F   F   F
 -0.0000000000000005  8.8781806048619991 14.5079841100818463   F   F   F
 -0.0000000000000008 12.7653231048619986 16.1549121062635699   F   F   F
  2.5753162210221419 10.5575318951380002 14.5079841100818463   F   F   F
  2.5753162210221414 14.4446743951380014 16.1549121062635699   F   F   F
  2.4124999772775411  9.2644647725256881 17.2485378414671651   T   T   T
  2.5753162210221414 12.7653231048619986 12.3220500792203929   F   F   F
  0.0408272458298593  7.7312526268583861 17.0915557933019784   T   T   T
  2.4879545313511851 11.9670416240522268 17.7278929828987941   T   T   T
  2.5753162210221419  7.7742849999999999 13.4150170946511196   F   F   F
 -0.0000000000000007 11.6614274999999985 13.4150170946511196   F   F   F
  5.1297193959980953  2.5946580401720722 17.4986863136396060   T   T   T
  5.1506324420442846  6.6703893951380007 12.3220500792203929   F   F   F
  5.1506324420442846  1.1038956048619994 14.5079841100818463   F   F   F
  5.1506324420442846  4.9910381048619996 16.1549121062635699   F   F   F
  7.7259486630664274  2.7832468951380007 14.5079841100818463   F   F   F
  7.7259486630664265  6.6703893951380007 16.1549121062635699   F   F   F
  7.6988065526478326  1.3761597201851956 17.3310795031534290   T   T   T
  7.7259486630664265  4.9910381048619996 12.3220500792203929   F   F   F
  5.1366787189931395 -0.1887579389276652 17.4532311031742040   T   T   T
  7.7446454601806431  4.1254512485795836 17.5221309708556703   T   T   T
  7.7259486630664274  0.0000000000000000 13.4150170946511196   F   F   F
  5.1506324420442846  3.8871424999999995 13.4150170946511196   F   F   F
  5.0348067849044895 10.4668381190751649 17.7096835419756609   T   T   T
  5.1506324420442837 14.4446743951380014 12.3220500792203929   F   F   F
  5.1506324420442837  8.8781806048619991 14.5079841100818463   F   F   F
  5.1506324420442837 12.7653231048619986 16.1549121062635699   F   F   F
  7.7259486630664256 10.5575318951380002 14.5079841100818463   F   F   F
  7.7259486630664256 14.4446743951380014 16.1549121062635699   F   F   F
  7.4395643324696508  8.7366307509483967 18.5448942374600811   T   T   T
  7.7259486630664256 12.7653231048619986 12.3220500792203929   F   F   F
  5.2004275873004957  7.7206505355648369 17.2579621858765506   T   T   T
  7.6640377010716989 11.6635535185440045 17.0890905890089755   T   T   T
  7.7259486630664256  7.7742849999999999 13.4150170946511196   F   F   F
  5.1506324420442837 11.6614274999999985 13.4150170946511196   F   F   F
  9.3975108774484148  9.0265472881482989 20.3840196695658697   T   T   T
  8.9051795370872107  9.7093683152797272 19.8889140196996834   T   T   T
