Rb Sb S H O                             
   1.00000000000000     
    13.2194173314844061    0.0000000000000000    3.4020833685027574
    -2.6159001194004001   11.9549387810215020   -4.4766740860332845
     0.0000000000000000    0.0000000000000000   40.6897654635237558
   Rb   Sb   S    H    O 
    16    16    32     1     1
Selective dynamics
Direct
  0.3379481249999969  0.8464224149999993  0.4856728791666640   F   F   F
  0.1620518750000031  0.1535775850000007  0.3476604541666646   F   F   F
  0.1394390049999998  0.4168542350000024  0.4692225308333349   F   F   F
  0.3605609950000002  0.5831457649999976  0.3641108025000008   F   F   F
  0.4090478899999965  0.3485902250000024  0.4057023458333333   F   F   F
  0.1019853250000011  0.9107798949999975  0.4009457574999971   F   F   F
  0.3980146749999989  0.0892201050000025  0.4323875758333315   F   F   F
  0.0909521100000035  0.6514097749999976  0.4276309875000024   F   F   F
  0.0841801199999992  0.1311910049999980  0.4349221158333307   F   F   F
  0.4158198800000008  0.8688089950000020  0.3984112174999979   F   F   F
  0.0981770550000007  0.4099075250000013  0.3897136358333313   F   F   F
  0.0990851800000030  0.8747535449999972  0.4576800508333321   F   F   F
  0.4018229449999993  0.5900924749999987  0.4436196974999973   F   F   F
  0.1159806450000005  0.6807036750000037  0.3680210974999980   F   F   F
  0.3840193549999995  0.3192963249999963  0.4653122358333306   F   F   F
  0.4009148199999970  0.1252464550000028  0.3756532824999965   F   F   F
  0.3316945973214089  0.8477921286318804  0.6459839673046517   T   T   T
  0.1620518750000031  0.1535775850000007  0.5143271208333360   F   F   F
  0.1537828513855075  0.3998494177057879  0.6356685724563178   T   T   T
  0.3605609950000002  0.5831457649999976  0.5307774691666651   F   F   F
  0.4148780070723461  0.3427038784505285  0.5740005724999975   T   T   T
  0.1019853250000011  0.9107798949999975  0.5676124241666685   F   F   F
  0.3980146749999989  0.0892201050000025  0.5990542425000029   F   F   F
  0.0929114500670352  0.6565003875898228  0.5937729753819383   T   T   T
  0.0822783163509868  0.1232373178510073  0.6021652402755606   T   T   T
  0.4158198800000008  0.8688089950000020  0.5650778841666693   F   F   F
  0.1077052411893575  0.4086082049573037  0.5579070809303417   T   T   T
  0.0927058002937571  0.8720951302948521  0.6244267629958600   T   T   T
  0.3909626746725579  0.5928747415663267  0.6150874843043610   T   T   T
  0.1159806450000005  0.6807036750000037  0.5346877641666694   F   F   F
  0.3951115178840539  0.3126707711170127  0.6315360450236867   T   T   T
  0.4009148199999970  0.1252464550000028  0.5423199491666679   F   F   F
  0.8379481249999969  0.8464224149999993  0.4856728791666640   F   F   F
  0.6620518750000031  0.1535775850000007  0.3476604541666646   F   F   F
  0.6394390049999998  0.4168542350000024  0.4692225308333349   F   F   F
  0.8605609950000002  0.5831457649999976  0.3641108025000008   F   F   F
  0.9090478899999965  0.3485902250000024  0.4057023458333333   F   F   F
  0.6019853250000011  0.9107798949999975  0.4009457574999971   F   F   F
  0.8980146749999989  0.0892201050000025  0.4323875758333315   F   F   F
  0.5909521100000035  0.6514097749999976  0.4276309875000024   F   F   F
  0.5841801199999992  0.1311910049999980  0.4349221158333307   F   F   F
  0.9158198800000008  0.8688089950000020  0.3984112174999979   F   F   F
  0.5981770550000007  0.4099075250000013  0.3897136358333313   F   F   F
  0.5990851800000030  0.8747535449999972  0.4576800508333321   F   F   F
  0.9018229449999993  0.5900924749999987  0.4436196974999973   F   F   F
  0.6159806450000005  0.6807036750000037  0.3680210974999980   F   F   F
  0.8840193549999995  0.3192963249999963  0.4653122358333306   F   F   F
  0.9009148199999970  0.1252464550000028  0.3756532824999965   F   F   F
  0.8196065802505785  0.8245853480722118  0.6465977571905626   T   T   T
  0.6620518750000031  0.1535775850000007  0.5143271208333360   F   F   F
  0.6590850292412895  0.4173695948723122  0.6375098555408130   T   T   T
  0.8605609950000002  0.5831457649999976  0.5307774691666651   F   F   F
  0.9211004696945864  0.3487443994226780  0.5737097118457939   T   T   T
  0.6019853250000011  0.9107798949999975  0.5676124241666685   F   F   F
  0.8980146749999989  0.0892201050000025  0.5990542425000029   F   F   F
  0.5751291361987967  0.6528647787296222  0.5977892990815974   T   T   T
  0.5802713278168952  0.1240471182525056  0.6036853036770253   T   T   T
  0.9158198800000008  0.8688089950000020  0.5650778841666693   F   F   F
  0.6005803802922429  0.4149506371554637  0.5602375145251983   T   T   T
  0.5931792408569834  0.8705624521253483  0.6244635170785102   T   T   T
  0.9091239261632964  0.5871514105250952  0.6105484321271675   T   T   T
  0.6159806450000005  0.6807036750000037  0.5346877641666694   F   F   F
  0.8987962246728429  0.3153429995047432  0.6312023124857760   T   T   T
  0.9009148199999970  0.1252464550000028  0.5423199491666679   F   F   F
  0.5545254933666541  0.6490053958358573  0.6625858796082866   T   T   T
  0.6213358866285930  0.6527742176834082  0.6465592092774628   T   T   T
 
  0.00000000E+00  0.00000000E+00  0.00000000E+00
  0.00000000E+00  0.00000000E+00  0.00000000E+00
  0.00000000E+00  0.00000000E+00  0.00000000E+00
  0.00000000E+00  0.00000000E+00  0.00000000E+00
  0.00000000E+00  0.00000000E+00  0.00000000E+00
  0.00000000E+00  0.00000000E+00  0.00000000E+00
  0.00000000E+00  0.00000000E+00  0.00000000E+00
  0.00000000E+00  0.00000000E+00  0.00000000E+00
  0.00000000E+00  0.00000000E+00  0.00000000E+00
  0.00000000E+00  0.00000000E+00  0.00000000E+00
  0.00000000E+00  0.00000000E+00  0.00000000E+00
  0.00000000E+00  0.00000000E+00  0.00000000E+00
  0.00000000E+00  0.00000000E+00  0.00000000E+00
  0.00000000E+00  0.00000000E+00  0.00000000E+00
  0.00000000E+00  0.00000000E+00  0.00000000E+00
  0.00000000E+00  0.00000000E+00  0.00000000E+00
  0.00000000E+00  0.00000000E+00  0.00000000E+00
  0.00000000E+00  0.00000000E+00  0.00000000E+00
  0.00000000E+00  0.00000000E+00  0.00000000E+00
  0.00000000E+00  0.00000000E+00  0.00000000E+00
  0.00000000E+00  0.00000000E+00  0.00000000E+00
  0.00000000E+00  0.00000000E+00  0.00000000E+00
  0.00000000E+00  0.00000000E+00  0.00000000E+00
  0.00000000E+00  0.00000000E+00  0.00000000E+00
  0.00000000E+00  0.00000000E+00  0.00000000E+00
  0.00000000E+00  0.00000000E+00  0.00000000E+00
  0.00000000E+00  0.00000000E+00  0.00000000E+00
  0.00000000E+00  0.00000000E+00  0.00000000E+00
  0.00000000E+00  0.00000000E+00  0.00000000E+00
  0.00000000E+00  0.00000000E+00  0.00000000E+00
  0.00000000E+00  0.00000000E+00  0.00000000E+00
  0.00000000E+00  0.00000000E+00  0.00000000E+00
  0.00000000E+00  0.00000000E+00  0.00000000E+00
  0.00000000E+00  0.00000000E+00  0.00000000E+00
  0.00000000E+00  0.00000000E+00  0.00000000E+00
  0.00000000E+00  0.00000000E+00  0.00000000E+00
  0.00000000E+00  0.00000000E+00  0.00000000E+00
  0.00000000E+00  0.00000000E+00  0.00000000E+00
  0.00000000E+00  0.00000000E+00  0.00000000E+00
  0.00000000E+00  0.00000000E+00  0.00000000E+00
  0.00000000E+00  0.00000000E+00  0.00000000E+00
  0.00000000E+00  0.00000000E+00  0.00000000E+00
  0.00000000E+00  0.00000000E+00  0.00000000E+00
  0.00000000E+00  0.00000000E+00  0.00000000E+00
  0.00000000E+00  0.00000000E+00  0.00000000E+00
  0.00000000E+00  0.00000000E+00  0.00000000E+00
  0.00000000E+00  0.00000000E+00  0.00000000E+00
  0.00000000E+00  0.00000000E+00  0.00000000E+00
  0.00000000E+00  0.00000000E+00  0.00000000E+00
  0.00000000E+00  0.00000000E+00  0.00000000E+00
  0.00000000E+00  0.00000000E+00  0.00000000E+00
  0.00000000E+00  0.00000000E+00  0.00000000E+00
  0.00000000E+00  0.00000000E+00  0.00000000E+00
  0.00000000E+00  0.00000000E+00  0.00000000E+00
  0.00000000E+00  0.00000000E+00  0.00000000E+00
  0.00000000E+00  0.00000000E+00  0.00000000E+00
  0.00000000E+00  0.00000000E+00  0.00000000E+00
  0.00000000E+00  0.00000000E+00  0.00000000E+00
  0.00000000E+00  0.00000000E+00  0.00000000E+00
  0.00000000E+00  0.00000000E+00  0.00000000E+00
  0.00000000E+00  0.00000000E+00  0.00000000E+00
  0.00000000E+00  0.00000000E+00  0.00000000E+00
  0.00000000E+00  0.00000000E+00  0.00000000E+00
  0.00000000E+00  0.00000000E+00  0.00000000E+00
  0.00000000E+00  0.00000000E+00  0.00000000E+00
  0.00000000E+00  0.00000000E+00  0.00000000E+00
