Ni Te O                                 
   1.00000000000000     
    11.8219139783511284    0.0000000000000000    0.0000000000000007
    -5.9109569891755687   10.2380778266064336    0.0000000000000007
     0.0000000000000000    0.0000000000000000   31.7872179599999996
   Ni   Te   O 
    18    36     1
Selective dynamics
Direct
  0.0000000000000000  0.0000000000000000  0.4166666666666643   F   F   F
  0.2222222222222214  0.1111111111111143  0.4579143933333327   F   F   F
  0.1111111111111143  0.2222222222222214  0.3754189400000030   F   F   F
  0.0078127387148825  0.9936416234245513  0.5845186927035471   T   T   T
  0.2338595699069614  0.1131206001163960  0.6246748771083972   T   T   T
  0.1111111111111143  0.2222222222222214  0.5420856066666673   F   F   F
  0.0000000000000000  0.3333333333333357  0.4166666666666643   F   F   F
  0.2222222222222214  0.4444444444444429  0.4579143933333327   F   F   F
  0.1111111111111143  0.5555555555555571  0.3754189400000030   F   F   F
  0.9974558711796746  0.3352302013381774  0.5838167732487634   T   T   T
  0.2212330676760601  0.4425207760962095  0.6240282993071418   T   T   T
  0.1111111111111143  0.5555555555555571  0.5420856066666673   F   F   F
  0.0000000000000000  0.6666666666666643  0.4166666666666643   F   F   F
  0.2222222222222214  0.7777777777777786  0.4579143933333327   F   F   F
  0.1111111111111143  0.8888888888888857  0.3754189400000030   F   F   F
  0.0009346069718248  0.6657604546451878  0.5822445309897049   T   T   T
  0.2228368783982475  0.7774864910043533  0.6241873851189368   T   T   T
  0.1111111111111143  0.8888888888888857  0.5420856066666673   F   F   F
  0.3333333333333357  0.0000000000000000  0.4166666666666643   F   F   F
  0.5555555555555571  0.1111111111111143  0.4579143933333327   F   F   F
  0.4444444444444429  0.2222222222222214  0.3754189400000030   F   F   F
  0.3350346202330456  0.9992778270980978  0.5822456955110198   T   T   T
  0.5515862830136626  0.1130034101284281  0.6251951421620916   T   T   T
  0.4444444444444429  0.2222222222222214  0.5420856066666673   F   F   F
  0.3333333333333357  0.3333333333333357  0.4166666666666643   F   F   F
  0.5555555555555571  0.4444444444444429  0.4579143933333327   F   F   F
  0.4444444444444429  0.5555555555555571  0.3754189400000030   F   F   F
  0.3340618398787427  0.3330413989202157  0.5828806488451193   T   T   T
  0.5554699927551852  0.4448720174904892  0.6245643363628375   T   T   T
  0.4444444444444429  0.5555555555555571  0.5420856066666673   F   F   F
  0.3333333333333357  0.6666666666666643  0.4166666666666643   F   F   F
  0.5555555555555571  0.7777777777777786  0.4579143933333327   F   F   F
  0.4444444444444429  0.8888888888888857  0.3754189400000030   F   F   F
  0.3339652565338298  0.6663314373966358  0.5830373594807057   T   T   T
  0.5579139964258388  0.7790525166791653  0.6242082322030171   T   T   T
  0.4444444444444429  0.8888888888888857  0.5420856066666673   F   F   F
  0.6666666666666643  0.0000000000000000  0.4166666666666643   F   F   F
  0.8888888888888857  0.1111111111111143  0.4579143933333327   F   F   F
  0.7777777777777786  0.2222222222222214  0.3754189400000030   F   F   F
  0.6653689903819213  0.0024031865759113  0.5838112741633878   T   T   T
  0.8615677409022169  0.1401991672706302  0.6332270236590460   T   T   T
  0.7777777777777786  0.2222222222222214  0.5420856066666673   F   F   F
  0.6666666666666643  0.3333333333333357  0.4166666666666643   F   F   F
  0.8888888888888857  0.4444444444444429  0.4579143933333327   F   F   F
  0.7777777777777786  0.5555555555555571  0.3754189400000030   F   F   F
  0.6657531294731669  0.3341904427457223  0.5830712259268154   T   T   T
  0.8869858038144116  0.4492956107713297  0.6250403982864299   T   T   T
  0.7777777777777786  0.5555555555555571  0.5420856066666673   F   F   F
  0.6666666666666643  0.6666666666666643  0.4166666666666643   F   F   F
  0.8888888888888857  0.7777777777777786  0.4579143933333327   F   F   F
  0.7777777777777786  0.8888888888888857  0.3754189400000030   F   F   F
  0.6673378978986761  0.6663684530610254  0.5829708742647384   T   T   T
  0.8878676925944475  0.7685680036547566  0.6246262048349820   T   T   T
  0.7777777777777786  0.8888888888888857  0.5420856066666673   F   F   F
  0.9569953732055296  0.0473771811252988  0.6364256158366004   T   T   T
 
  0.00000000E+00  0.00000000E+00  0.00000000E+00
  0.00000000E+00  0.00000000E+00  0.00000000E+00
  0.00000000E+00  0.00000000E+00  0.00000000E+00
  0.00000000E+00  0.00000000E+00  0.00000000E+00
  0.00000000E+00  0.00000000E+00  0.00000000E+00
  0.00000000E+00  0.00000000E+00  0.00000000E+00
  0.00000000E+00  0.00000000E+00  0.00000000E+00
  0.00000000E+00  0.00000000E+00  0.00000000E+00
  0.00000000E+00  0.00000000E+00  0.00000000E+00
  0.00000000E+00  0.00000000E+00  0.00000000E+00
  0.00000000E+00  0.00000000E+00  0.00000000E+00
  0.00000000E+00  0.00000000E+00  0.00000000E+00
  0.00000000E+00  0.00000000E+00  0.00000000E+00
  0.00000000E+00  0.00000000E+00  0.00000000E+00
  0.00000000E+00  0.00000000E+00  0.00000000E+00
  0.00000000E+00  0.00000000E+00  0.00000000E+00
  0.00000000E+00  0.00000000E+00  0.00000000E+00
  0.00000000E+00  0.00000000E+00  0.00000000E+00
  0.00000000E+00  0.00000000E+00  0.00000000E+00
  0.00000000E+00  0.00000000E+00  0.00000000E+00
  0.00000000E+00  0.00000000E+00  0.00000000E+00
  0.00000000E+00  0.00000000E+00  0.00000000E+00
  0.00000000E+00  0.00000000E+00  0.00000000E+00
  0.00000000E+00  0.00000000E+00  0.00000000E+00
  0.00000000E+00  0.00000000E+00  0.00000000E+00
  0.00000000E+00  0.00000000E+00  0.00000000E+00
  0.00000000E+00  0.00000000E+00  0.00000000E+00
  0.00000000E+00  0.00000000E+00  0.00000000E+00
  0.00000000E+00  0.00000000E+00  0.00000000E+00
  0.00000000E+00  0.00000000E+00  0.00000000E+00
  0.00000000E+00  0.00000000E+00  0.00000000E+00
  0.00000000E+00  0.00000000E+00  0.00000000E+00
  0.00000000E+00  0.00000000E+00  0.00000000E+00
  0.00000000E+00  0.00000000E+00  0.00000000E+00
  0.00000000E+00  0.00000000E+00  0.00000000E+00
  0.00000000E+00  0.00000000E+00  0.00000000E+00
  0.00000000E+00  0.00000000E+00  0.00000000E+00
  0.00000000E+00  0.00000000E+00  0.00000000E+00
  0.00000000E+00  0.00000000E+00  0.00000000E+00
  0.00000000E+00  0.00000000E+00  0.00000000E+00
  0.00000000E+00  0.00000000E+00  0.00000000E+00
  0.00000000E+00  0.00000000E+00  0.00000000E+00
  0.00000000E+00  0.00000000E+00  0.00000000E+00
  0.00000000E+00  0.00000000E+00  0.00000000E+00
  0.00000000E+00  0.00000000E+00  0.00000000E+00
  0.00000000E+00  0.00000000E+00  0.00000000E+00
  0.00000000E+00  0.00000000E+00  0.00000000E+00
  0.00000000E+00  0.00000000E+00  0.00000000E+00
  0.00000000E+00  0.00000000E+00  0.00000000E+00
  0.00000000E+00  0.00000000E+00  0.00000000E+00
  0.00000000E+00  0.00000000E+00  0.00000000E+00
  0.00000000E+00  0.00000000E+00  0.00000000E+00
  0.00000000E+00  0.00000000E+00  0.00000000E+00
  0.00000000E+00  0.00000000E+00  0.00000000E+00
  0.00000000E+00  0.00000000E+00  0.00000000E+00
