Te Rh H O                               
   1.00000000000000     
    11.9542345567388093    0.0000000000000000    0.0000000000000007
    -5.9771172783694029   10.3526708089336186    0.0000000000000007
     0.0000000000000000    0.0000000000000000   33.2811080399999994
   Te   Rh   H    O 
    36    18     1     1
Selective dynamics
Direct
  0.2222222222222214  0.1111111111111143  0.4583114750000021   F   F   F
  0.1111111111111143  0.2222222222222214  0.3750218583333336   F   F   F
  0.0000000000000000  0.0000000000000000  0.4166666666666643   F   F   F
  0.2225435789282244  0.1111488414458393  0.6246020553499534   T   T   T
  0.1111111111111143  0.2222222222222214  0.5416885249999979   F   F   F
  0.9990599367942679  0.9988263868366829  0.5827757362076937   T   T   T
  0.2222222222222214  0.4444444444444429  0.4583114750000021   F   F   F
  0.1111111111111143  0.5555555555555571  0.3750218583333336   F   F   F
  0.0000000000000000  0.3333333333333357  0.4166666666666643   F   F   F
  0.2253824316201616  0.4447041673135246  0.6255131615649674   T   T   T
  0.1111111111111143  0.5555555555555571  0.5416885249999979   F   F   F
  0.0026344982535775  0.3303699057234653  0.5844701683999389   T   T   T
  0.2222222222222214  0.7777777777777786  0.4583114750000021   F   F   F
  0.1111111111111143  0.8888888888888857  0.3750218583333336   F   F   F
  0.0000000000000000  0.6666666666666643  0.4166666666666643   F   F   F
  0.2249324717931813  0.7801198351740481  0.6255721344071006   T   T   T
  0.1111111111111143  0.8888888888888857  0.5416885249999979   F   F   F
  0.0028340714078823  0.6726961556242301  0.5845232234261530   T   T   T
  0.5555555555555571  0.1111111111111143  0.4583114750000021   F   F   F
  0.4444444444444429  0.2222222222222214  0.3750218583333336   F   F   F
  0.3333333333333357  0.0000000000000000  0.4166666666666643   F   F   F
  0.5531983589330522  0.1087116561491044  0.6254876944105803   T   T   T
  0.4444444444444429  0.2222222222222214  0.5416885249999979   F   F   F
  0.3334888644350258  0.9996217230907476  0.5826585390720282   T   T   T
  0.5555555555555571  0.4444444444444429  0.4583114750000021   F   F   F
  0.4444444444444429  0.5555555555555571  0.3750218583333336   F   F   F
  0.3333333333333357  0.3333333333333357  0.4166666666666643   F   F   F
  0.5532072821448182  0.4440838968537548  0.6257303845134246   T   T   T
  0.4444444444444429  0.5555555555555571  0.5416885249999979   F   F   F
  0.3341155245092509  0.3341549890552429  0.5826766265910095   T   T   T
  0.5555555555555571  0.7777777777777786  0.4583114750000021   F   F   F
  0.4444444444444429  0.8888888888888857  0.3750218583333336   F   F   F
  0.3333333333333357  0.6666666666666643  0.4166666666666643   F   F   F
  0.5554264564302827  0.7779528192775444  0.6250087467386436   T   T   T
  0.4444444444444429  0.8888888888888857  0.5416885249999979   F   F   F
  0.3330169507850087  0.6661623909920351  0.5832737207734979   T   T   T
  0.8888888888888857  0.1111111111111143  0.4583114750000021   F   F   F
  0.7777777777777786  0.2222222222222214  0.3750218583333336   F   F   F
  0.6666666666666643  0.0000000000000000  0.4166666666666643   F   F   F
  0.8887776524472102  0.1080602016443777  0.6255154570052852   T   T   T
  0.7777777777777786  0.2222222222222214  0.5416885249999979   F   F   F
  0.6672394546450136  0.0004424306719244  0.5832637356007382   T   T   T
  0.8888888888888857  0.4444444444444429  0.4583114750000021   F   F   F
  0.7777777777777786  0.5555555555555571  0.3750218583333336   F   F   F
  0.6666666666666643  0.3333333333333357  0.4166666666666643   F   F   F
  0.8886887666652115  0.4431850415587419  0.6182963581384726   T   T   T
  0.7777777777777786  0.5555555555555571  0.5416885249999979   F   F   F
  0.6611850062357689  0.3308236910286624  0.5843313662699217   T   T   T
  0.8888888888888857  0.7777777777777786  0.4583114750000021   F   F   F
  0.7777777777777786  0.8888888888888857  0.3750218583333336   F   F   F
  0.6666666666666643  0.6666666666666643  0.4166666666666643   F   F   F
  0.8896156577685446  0.7809860809494253  0.6258835865746093   T   T   T
  0.7777777777777786  0.8888888888888857  0.5416885249999979   F   F   F
  0.6670453682579804  0.6666499827701671  0.5834763994067345   T   T   T
  0.9302495241244912  0.3971939025182465  0.6890122826181511   T   T   T
  0.8814404931116613  0.4376291903207417  0.6793454995529160   T   T   T
 
  0.00000000E+00  0.00000000E+00  0.00000000E+00
  0.00000000E+00  0.00000000E+00  0.00000000E+00
  0.00000000E+00  0.00000000E+00  0.00000000E+00
  0.00000000E+00  0.00000000E+00  0.00000000E+00
  0.00000000E+00  0.00000000E+00  0.00000000E+00
  0.00000000E+00  0.00000000E+00  0.00000000E+00
  0.00000000E+00  0.00000000E+00  0.00000000E+00
  0.00000000E+00  0.00000000E+00  0.00000000E+00
  0.00000000E+00  0.00000000E+00  0.00000000E+00
  0.00000000E+00  0.00000000E+00  0.00000000E+00
  0.00000000E+00  0.00000000E+00  0.00000000E+00
  0.00000000E+00  0.00000000E+00  0.00000000E+00
  0.00000000E+00  0.00000000E+00  0.00000000E+00
  0.00000000E+00  0.00000000E+00  0.00000000E+00
  0.00000000E+00  0.00000000E+00  0.00000000E+00
  0.00000000E+00  0.00000000E+00  0.00000000E+00
  0.00000000E+00  0.00000000E+00  0.00000000E+00
  0.00000000E+00  0.00000000E+00  0.00000000E+00
  0.00000000E+00  0.00000000E+00  0.00000000E+00
  0.00000000E+00  0.00000000E+00  0.00000000E+00
  0.00000000E+00  0.00000000E+00  0.00000000E+00
  0.00000000E+00  0.00000000E+00  0.00000000E+00
  0.00000000E+00  0.00000000E+00  0.00000000E+00
  0.00000000E+00  0.00000000E+00  0.00000000E+00
  0.00000000E+00  0.00000000E+00  0.00000000E+00
  0.00000000E+00  0.00000000E+00  0.00000000E+00
  0.00000000E+00  0.00000000E+00  0.00000000E+00
  0.00000000E+00  0.00000000E+00  0.00000000E+00
  0.00000000E+00  0.00000000E+00  0.00000000E+00
  0.00000000E+00  0.00000000E+00  0.00000000E+00
  0.00000000E+00  0.00000000E+00  0.00000000E+00
  0.00000000E+00  0.00000000E+00  0.00000000E+00
  0.00000000E+00  0.00000000E+00  0.00000000E+00
  0.00000000E+00  0.00000000E+00  0.00000000E+00
  0.00000000E+00  0.00000000E+00  0.00000000E+00
  0.00000000E+00  0.00000000E+00  0.00000000E+00
  0.00000000E+00  0.00000000E+00  0.00000000E+00
  0.00000000E+00  0.00000000E+00  0.00000000E+00
  0.00000000E+00  0.00000000E+00  0.00000000E+00
  0.00000000E+00  0.00000000E+00  0.00000000E+00
  0.00000000E+00  0.00000000E+00  0.00000000E+00
  0.00000000E+00  0.00000000E+00  0.00000000E+00
  0.00000000E+00  0.00000000E+00  0.00000000E+00
  0.00000000E+00  0.00000000E+00  0.00000000E+00
  0.00000000E+00  0.00000000E+00  0.00000000E+00
  0.00000000E+00  0.00000000E+00  0.00000000E+00
  0.00000000E+00  0.00000000E+00  0.00000000E+00
  0.00000000E+00  0.00000000E+00  0.00000000E+00
  0.00000000E+00  0.00000000E+00  0.00000000E+00
  0.00000000E+00  0.00000000E+00  0.00000000E+00
  0.00000000E+00  0.00000000E+00  0.00000000E+00
  0.00000000E+00  0.00000000E+00  0.00000000E+00
  0.00000000E+00  0.00000000E+00  0.00000000E+00
  0.00000000E+00  0.00000000E+00  0.00000000E+00
  0.00000000E+00  0.00000000E+00  0.00000000E+00
  0.00000000E+00  0.00000000E+00  0.00000000E+00
