Te Rh H O
 1.0000000000000000
    11.9542345567388093    0.0000000000000000    0.0000000000000007
    -5.9771172783694029   10.3526708089336186    0.0000000000000007
     0.0000000000000000    0.0000000000000000   33.2811080399999994
Te Rh H O
36 18 1 1
Selective dynamics
Cartesian
  1.9923724261231346  1.1502967565481799 15.2531137154467622   F   F   F
 -0.0000000000000004  2.3005935130963593 12.4811429845532409   F   F   F
  0.0000000000000000  0.0000000000000000 13.8671283499999998   F   F   F
  1.9959884809274318  1.1506873662831298 20.7874484861078450   T   T   T
 -0.0000000000000004  2.3005935130963593 18.0279943245532408   F   F   F
 -0.0042229125429003 -0.0121500307368478 19.3954222398188953   T   T   T
  0.0000000000000002  4.6011870261927195 15.2531137154467622   F   F   F
 -1.9923724261231348  5.7514837827408982 12.4811429845532409   F   F   F
 -1.9923724261231344  3.4508902696445394 13.8671283499999998   F   F   F
  0.0362254903429859  4.6038758515578317 20.8177711104855767   T   T   T
 -1.9923724261231348  5.7514837827408982 18.0279943245532408   F   F   F
 -1.9431662616904448  3.4202108791334713 19.4518148206753771   T   T   T
 -1.9923724261231341  8.0520772958372593 15.2531137154467622   F   F   F
 -3.9847448522462692  9.2023740523854372 12.4811429845532409   F   F   F
 -3.9847448522462687  6.9017805392890788 13.8671283499999998   F   F   F
 -1.9739722187747843  8.0763238450765105 20.8197337920161623   T   T   T
 -3.9847448522462692  9.2023740523854372 18.0279943245532408   F   F   F
 -3.9869046605138756  6.9642018536128072 19.4535805507349373   T   T   T
  5.9771172783694038  1.1502967565481799 15.2531137154467622   F   F   F
  3.9847448522462692  2.3005935130963593 12.4811429845532409   F   F   F
  3.9847448522462696  0.0000000000000000 13.8671283499999998   F   F   F
  5.9632806207597167  1.1254559892056408 20.8169235353690816   T   T   T
  3.9847448522462692  2.3005935130963593 18.0279943245532408   F   F   F
  3.9888651129670802 -0.0039161763161246 19.3915217892846208   T   T   T
  3.9847448522462701  4.6011870261927195 15.2531137154467622   F   F   F
  1.9923724261231348  5.7514837827408982 12.4811429845532409   F   F   F
  1.9923724261231353  3.4508902696445394 13.8671283499999998   F   F   F
  3.9588280763249104  4.5974543956753857 20.8250005309020558   T   T   T
  1.9923724261231348  5.7514837827408982 18.0279943245532408   F   F   F
  1.9968117902960030  3.4593966008517119 19.3921237619580147   T   T   T
  1.9923724261231355  8.0520772958372593 15.2531137154467622   F   F   F
  0.0000000000000004  9.2023740523854372 12.4811429845532409   F   F   F
  0.0000000000000009  6.9017805392890788 13.8671283499999998   F   F   F
  1.9897829013258770  8.0538894428622800 20.8009836261537053   T   T   T
  0.0000000000000004  9.2023740523854372 18.0279943245532408   F   F   F
 -0.0007679963443925  6.8965599392326604 19.4119957179556017   T   T   T
  9.9618621306156747  1.1502967565481799 15.2531137154467622   F   F   F
  7.9694897044925384  2.3005935130963593 12.4811429845532409   F   F   F
  7.9694897044925392  0.0000000000000000 13.8671283499999998   F   F   F
  9.9787680277889486  1.1187116951712073 20.8178475052829377   T   T   T
  7.9694897044925384  2.3005935130963593 18.0279943245532408   F   F   F
  7.9736924863233662  0.0045803391021764 19.4116634003422455   T   T   T
  7.9694897044925392  4.6011870261927195 15.2531137154467622   F   F   F
  5.9771172783694038  5.7514837827408982 12.4811429845532409   F   F   F
  5.9771172783694047  3.4508902696445394 13.8671283499999998   F   F   F
  7.9746249952392319  4.5881488427012025 20.5775878959449834   T   T   T
  5.9771172783694038  5.7514837827408982 18.0279943245532408   F   F   F
  5.9265886501998457  3.4249087690161351 19.4471953319899562   T   T   T
  5.9771172783694055  8.0520772958372593 15.2531137154467640   F   F   F
  3.9847448522462701  9.2023740523854372 12.4811429845532427   F   F   F
  3.9847448522462705  6.9017805392890788 13.8671283500000015   F   F   F
  5.9666288397038443  8.0852918024285803 20.8300992652522687   T   T   T
  3.9847448522462701  9.2023740523854372 18.0279943245532408   F   F   F
  3.9893716615018402  6.9016078164008414 19.4187410874456923   T   T   T
  8.7463464700740641  4.1120177200870875 22.9310922187017532   T   T   T
  7.9211854074794195  4.5306309437708006 22.6093709671083190   T   T   T
