Mo Pd H O
 1.0000000000000000
     8.4157636701125895    0.0000000000000000    0.0000000000000005
    -4.2078818350562965    7.2882651305636630    0.0000000000000005
     0.0000000000000000    0.0000000000000000   54.9880536551249932
Mo Pd H O
27 81 1 1
Selective dynamics
Cartesian
  0.0000000000000000  0.0000000000000000 37.8332024106538185   F   F   F
 -0.0000000000000003  1.6196144734585920 19.5038511922788160   F   F   F
  1.4026272783520979  0.8098072367292960 28.6685268014663137   F   F   F
  1.4026272783520979  0.8098072367292960 35.5996639212837138   F   F   F
 -0.0000000000000003  1.6196144734585920 33.2508646060600626   F   F   F
  0.0000000000000000  0.0000000000000000 30.9020652908364184   F   F   F
  0.0000000000000000  0.0000000000000000 17.2703127029087113   F   F   F
  1.4026272783520988  0.8098072367292960 14.9215133876850654   F   F   F
  0.0065035330935640  1.6155925504790736 40.0373530271213340   T   T   T
 -0.0000000000000003  1.6196144734585920 26.4349883120962090   F   F   F
  0.0000000000000005  0.0000000000000003 24.0861889968725613   F   F   F
  1.4026272783520979  0.8098072367292960 21.7373896816489278   F   F   F
 -1.4026272783520990  2.4294217101878877 37.8332024106538185   F   F   F
 -1.4026272783520994  4.0490361836464794 19.5038511922788160   F   F   F
 -0.0000000000000011  3.2392289469171835 28.6685268014663137   F   F   F
 -0.0000000000000011  3.2392289469171835 35.5996639212837138   F   F   F
 -1.4026272783520994  4.0490361836464794 33.2508646060600626   F   F   F
 -1.4026272783520990  2.4294217101878877 30.9020652908364184   F   F   F
 -1.4026272783520990  2.4294217101878877 17.2703127029087113   F   F   F
 -0.0000000000000002  3.2392289469171835 14.9215133876850654   F   F   F
 -1.3971867989166071  4.0458890523778459 40.0467162283862663   T   T   T
 -1.4026272783520994  4.0490361836464794 26.4349883120962090   F   F   F
 -1.4026272783520985  2.4294217101878881 24.0861889968725613   F   F   F
 -0.0000000000000011  3.2392289469171835 21.7373896816489278   F   F   F
 -2.8052545567041980  4.8588434203757753 37.8332024106538185   F   F   F
 -2.8052545567041984  6.4784578938343671 19.5038511922788160   F   F   F
 -1.4026272783521001  5.6686506571050712 28.6685268014663137   F   F   F
 -1.4026272783521001  5.6686506571050712 35.5996639212837138   F   F   F
 -2.8052545567041984  6.4784578938343671 33.2508646060600626   F   F   F
 -2.8052545567041980  4.8588434203757753 30.9020652908364184   F   F   F
 -2.8052545567041980  4.8588434203757753 17.2703127029087113   F   F   F
 -1.4026272783520992  5.6686506571050712 14.9215133876850654   F   F   F
 -2.8010340577087613  6.4728418967061785 40.0492677946900031   T   T   T
 -2.8052545567041984  6.4784578938343671 26.4349883120962090   F   F   F
 -2.8052545567041975  4.8588434203757753 24.0861889968725613   F   F   F
 -1.4026272783521001  5.6686506571050712 21.7373896816489278   F   F   F
  2.8052545567041962  0.0000000000000000 37.8332024106538185   F   F   F
  2.8052545567041958  1.6196144734585920 19.5038511922788160   F   F   F
  4.2078818350562939  0.8098072367292960 28.6685268014663137   F   F   F
  4.2078818350562939  0.8098072367292960 35.5996639212837138   F   F   F
  2.8052545567041958  1.6196144734585920 33.2508646060600626   F   F   F
  2.8052545567041962  0.0000000000000000 30.9020652908364184   F   F   F
  2.8052545567041962  0.0000000000000000 17.2703127029087113   F   F   F
  4.2078818350562948  0.8098072367292960 14.9215133876850654   F   F   F
  2.8045081409962873  1.6202802987618503 40.0378900786950354   T   T   T
  2.8052545567041958  1.6196144734585920 26.4349883120962090   F   F   F
  2.8052545567041967  0.0000000000000003 24.0861889968725613   F   F   F
  4.2078818350562939  0.8098072367292960 21.7373896816489278   F   F   F
  1.4026272783520972  2.4294217101878877 37.8332024106538185   F   F   F
  1.4026272783520968  4.0490361836464794 19.5038511922788160   F   F   F
  2.8052545567041953  3.2392289469171835 28.6685268014663137   F   F   F
  2.8052545567041953  3.2392289469171835 35.5996639212837138   F   F   F
  1.4026272783520968  4.0490361836464794 33.2508646060600626   F   F   F
  1.4026272783520972  2.4294217101878877 30.9020652908364184   F   F   F
  1.4026272783520972  2.4294217101878877 17.2703127029087113   F   F   F
  2.8052545567041962  3.2392289469171835 14.9215133876850654   F   F   F
  1.4092029710408811  4.0452601354236899 40.0376156103900840   T   T   T
  1.4026272783520968  4.0490361836464794 26.4349883120962090   F   F   F
  1.4026272783520977  2.4294217101878881 24.0861889968725613   F   F   F
  2.8052545567041953  3.2392289469171835 21.7373896816489278   F   F   F
 -0.0000000000000018  4.8588434203757753 37.8332024106538185   F   F   F
 -0.0000000000000021  6.4784578938343671 19.5038511922788160   F   F   F
  1.4026272783520961  5.6686506571050712 28.6685268014663137   F   F   F
  1.4026272783520961  5.6686506571050712 35.5996639212837138   F   F   F
 -0.0000000000000021  6.4784578938343671 33.2508646060600626   F   F   F
 -0.0000000000000018  4.8588434203757753 30.9020652908364184   F   F   F
 -0.0000000000000018  4.8588434203757753 17.2703127029087113   F   F   F
  1.4026272783520970  5.6686506571050712 14.9215133876850654   F   F   F
  0.0069972699129700  6.4801997042451163 40.0332616907440197   T   T   T
 -0.0000000000000021  6.4784578938343671 26.4349883120962090   F   F   F
 -0.0000000000000013  4.8588434203757753 24.0861889968725613   F   F   F
  1.4026272783520961  5.6686506571050712 21.7373896816489278   F   F   F
  5.6105091134083924  0.0000000000000000 37.8332024106538185   F   F   F
  5.6105091134083924  1.6196144734585920 19.5038511922788160   F   F   F
  7.0131363917604901  0.8098072367292960 28.6685268014663137   F   F   F
  7.0131363917604901  0.8098072367292960 35.5996639212837138   F   F   F
  5.6105091134083924  1.6196144734585920 33.2508646060600626   F   F   F
  5.6105091134083924  0.0000000000000000 30.9020652908364184   F   F   F
  5.6105091134083924  0.0000000000000000 17.2703127029087113   F   F   F
  7.0131363917604910  0.8098072367292960 14.9215133876850654   F   F   F
  5.6121457281565714  1.6123786613307181 40.0325288780973452   T   T   T
  5.6105091134083924  1.6196144734585920 26.4349883120962090   F   F   F
  5.6105091134083933  0.0000000000000003 24.0861889968725613   F   F   F
  7.0131363917604901  0.8098072367292960 21.7373896816489278   F   F   F
  4.2078818350562930  2.4294217101878877 37.8332024106538185   F   F   F
  4.2078818350562930  4.0490361836464794 19.5038511922788160   F   F   F
  5.6105091134083906  3.2392289469171835 28.6685268014663137   F   F   F
  5.6105091134083906  3.2392289469171835 35.5996639212837138   F   F   F
  4.2078818350562930  4.0490361836464794 33.2508646060600626   F   F   F
  4.2078818350562930  2.4294217101878877 30.9020652908364184   F   F   F
  4.2078818350562930  2.4294217101878877 17.2703127029087113   F   F   F
  5.6105091134083915  3.2392289469171835 14.9215133876850654   F   F   F
  4.2156765333491482  4.0475028732444693 40.0486006502110641   T   T   T
  4.2078818350562930  4.0490361836464794 26.4349883120962090   F   F   F
  4.2078818350562939  2.4294217101878881 24.0861889968725613   F   F   F
  5.6105091134083906  3.2392289469171835 21.7373896816489278   F   F   F
  2.8052545567041944  4.8588434203757753 37.8332024106538185   F   F   F
  2.8052545567041940  6.4784578938343671 19.5038511922788160   F   F   F
  4.2078818350562921  5.6686506571050712 28.6685268014663137   F   F   F
  4.2078818350562921  5.6686506571050712 35.5996639212837138   F   F   F
  2.8052545567041940  6.4784578938343671 33.2508646060600626   F   F   F
  2.8052545567041944  4.8588434203757753 30.9020652908364184   F   F   F
  2.8052545567041944  4.8588434203757753 17.2703127029087113   F   F   F
  4.2078818350562930  5.6686506571050712 14.9215133876850654   F   F   F
  2.8018732813587754  6.4807420378520888 40.0331990528480119   T   T   T
  2.8052545567041940  6.4784578938343671 26.4349883120962090   F   F   F
  2.8052545567041949  4.8588434203757753 24.0861889968725613   F   F   F
  4.2078818350562921  5.6686506571050712 21.7373896816489278   F   F   F
  5.6504308080181875  4.8368328478591822 42.7184159371163474   T   T   T
  5.6295332747649400  4.8497042570228910 41.7433083938288760   T   T   T
