Rb Sb S O                               
   1.00000000000000     
    13.2194173314844061    0.0000000000000000    3.4020833685027574
    -2.6159001194004001   11.9549387810215020   -4.4766740860332845
     0.0000000000000000    0.0000000000000000   40.6897654635237558
   Rb   Sb   S    O 
    16    16    32     1
Selective dynamics
Direct
  0.3379481249999969  0.8464224149999993  0.4856728791666640   F   F   F
  0.1620518750000031  0.1535775850000007  0.3476604541666646   F   F   F
  0.1394390049999998  0.4168542350000024  0.4692225308333349   F   F   F
  0.3605609950000002  0.5831457649999976  0.3641108025000008   F   F   F
  0.4090478899999965  0.3485902250000024  0.4057023458333333   F   F   F
  0.1019853250000011  0.9107798949999975  0.4009457574999971   F   F   F
  0.3980146749999989  0.0892201050000025  0.4323875758333315   F   F   F
  0.0909521100000035  0.6514097749999976  0.4276309875000024   F   F   F
  0.0841801199999992  0.1311910049999980  0.4349221158333307   F   F   F
  0.4158198800000008  0.8688089950000020  0.3984112174999979   F   F   F
  0.0981770550000007  0.4099075250000013  0.3897136358333313   F   F   F
  0.0990851800000030  0.8747535449999972  0.4576800508333321   F   F   F
  0.4018229449999993  0.5900924749999987  0.4436196974999973   F   F   F
  0.1159806450000005  0.6807036750000037  0.3680210974999980   F   F   F
  0.3840193549999995  0.3192963249999963  0.4653122358333306   F   F   F
  0.4009148199999970  0.1252464550000028  0.3756532824999965   F   F   F
  0.3363933664900998  0.8495279114918475  0.6484165444991064   T   T   T
  0.1620518750000031  0.1535775850000007  0.5143271208333360   F   F   F
  0.1688204051693987  0.4062374342873767  0.6385680222347219   T   T   T
  0.3605609950000002  0.5831457649999976  0.5307774691666651   F   F   F
  0.4279828564510666  0.3474689910660516  0.5732752158651877   T   T   T
  0.1019853250000011  0.9107798949999975  0.5676124241666685   F   F   F
  0.3980146749999989  0.0892201050000025  0.5990542425000029   F   F   F
  0.0946371266328612  0.6589594963245986  0.5941140892066912   T   T   T
  0.0810950800394679  0.1212214884981435  0.6031519938313750   T   T   T
  0.4158198800000008  0.8688089950000020  0.5650778841666693   F   F   F
  0.1154295232684603  0.4095080311669861  0.5593777761371754   T   T   T
  0.0990285731242224  0.8749607585418389  0.6242066996759306   T   T   T
  0.4063227741688706  0.5917262793830602  0.6081971333263354   T   T   T
  0.1159806450000005  0.6807036750000037  0.5346877641666694   F   F   F
  0.4061522228135175  0.3176300096922589  0.6310675253391977   T   T   T
  0.4009148199999970  0.1252464550000028  0.5423199491666679   F   F   F
  0.8379481249999969  0.8464224149999993  0.4856728791666640   F   F   F
  0.6620518750000031  0.1535775850000007  0.3476604541666646   F   F   F
  0.6394390049999998  0.4168542350000024  0.4692225308333349   F   F   F
  0.8605609950000002  0.5831457649999976  0.3641108025000008   F   F   F
  0.9090478899999965  0.3485902250000024  0.4057023458333333   F   F   F
  0.6019853250000011  0.9107798949999975  0.4009457574999971   F   F   F
  0.8980146749999989  0.0892201050000025  0.4323875758333315   F   F   F
  0.5909521100000035  0.6514097749999976  0.4276309875000024   F   F   F
  0.5841801199999992  0.1311910049999980  0.4349221158333307   F   F   F
  0.9158198800000008  0.8688089950000020  0.3984112174999979   F   F   F
  0.5981770550000007  0.4099075250000013  0.3897136358333313   F   F   F
  0.5990851800000030  0.8747535449999972  0.4576800508333321   F   F   F
  0.9018229449999993  0.5900924749999987  0.4436196974999973   F   F   F
  0.6159806450000005  0.6807036750000037  0.3680210974999980   F   F   F
  0.8840193549999995  0.3192963249999963  0.4653122358333306   F   F   F
  0.9009148199999970  0.1252464550000028  0.3756532824999965   F   F   F
  0.8426733260006571  0.8442454199982095  0.6462797046093698   T   T   T
  0.6620518750000031  0.1535775850000007  0.5143271208333360   F   F   F
  0.6672881370579447  0.3944099525727367  0.6352335776688633   T   T   T
  0.8605609950000002  0.5831457649999976  0.5307774691666651   F   F   F
  0.9294237773889833  0.3487922038052602  0.5737992451832312   T   T   T
  0.6019853250000011  0.9107798949999975  0.5676124241666685   F   F   F
  0.8980146749999989  0.0892201050000025  0.5990542425000029   F   F   F
  0.6051173162374681  0.6643109176269704  0.5934806427650727   T   T   T
  0.5809788887196703  0.1190962553821606  0.6034550143458119   T   T   T
  0.9158198800000008  0.8688089950000020  0.5650778841666693   F   F   F
  0.6144066680258362  0.4119797544740678  0.5586020020591747   T   T   T
  0.5997332507035864  0.8749331029570016  0.6243800836887559   T   T   T
  0.9102055135125440  0.5923951249549262  0.6120006044086210   T   T   T
  0.6159806450000005  0.6807036750000037  0.5346877641666694   F   F   F
  0.9046882557100844  0.3156382157070254  0.6314833407396918   T   T   T
  0.9009148199999970  0.1252464550000028  0.5423199491666679   F   F   F
  0.3581596164801937  0.6361672581038391  0.6486733826168347   T   T   T
 
  0.00000000E+00  0.00000000E+00  0.00000000E+00
  0.00000000E+00  0.00000000E+00  0.00000000E+00
  0.00000000E+00  0.00000000E+00  0.00000000E+00
  0.00000000E+00  0.00000000E+00  0.00000000E+00
  0.00000000E+00  0.00000000E+00  0.00000000E+00
  0.00000000E+00  0.00000000E+00  0.00000000E+00
  0.00000000E+00  0.00000000E+00  0.00000000E+00
  0.00000000E+00  0.00000000E+00  0.00000000E+00
  0.00000000E+00  0.00000000E+00  0.00000000E+00
  0.00000000E+00  0.00000000E+00  0.00000000E+00
  0.00000000E+00  0.00000000E+00  0.00000000E+00
  0.00000000E+00  0.00000000E+00  0.00000000E+00
  0.00000000E+00  0.00000000E+00  0.00000000E+00
  0.00000000E+00  0.00000000E+00  0.00000000E+00
  0.00000000E+00  0.00000000E+00  0.00000000E+00
  0.00000000E+00  0.00000000E+00  0.00000000E+00
  0.00000000E+00  0.00000000E+00  0.00000000E+00
  0.00000000E+00  0.00000000E+00  0.00000000E+00
  0.00000000E+00  0.00000000E+00  0.00000000E+00
  0.00000000E+00  0.00000000E+00  0.00000000E+00
  0.00000000E+00  0.00000000E+00  0.00000000E+00
  0.00000000E+00  0.00000000E+00  0.00000000E+00
  0.00000000E+00  0.00000000E+00  0.00000000E+00
  0.00000000E+00  0.00000000E+00  0.00000000E+00
  0.00000000E+00  0.00000000E+00  0.00000000E+00
  0.00000000E+00  0.00000000E+00  0.00000000E+00
  0.00000000E+00  0.00000000E+00  0.00000000E+00
  0.00000000E+00  0.00000000E+00  0.00000000E+00
  0.00000000E+00  0.00000000E+00  0.00000000E+00
  0.00000000E+00  0.00000000E+00  0.00000000E+00
  0.00000000E+00  0.00000000E+00  0.00000000E+00
  0.00000000E+00  0.00000000E+00  0.00000000E+00
  0.00000000E+00  0.00000000E+00  0.00000000E+00
  0.00000000E+00  0.00000000E+00  0.00000000E+00
  0.00000000E+00  0.00000000E+00  0.00000000E+00
  0.00000000E+00  0.00000000E+00  0.00000000E+00
  0.00000000E+00  0.00000000E+00  0.00000000E+00
  0.00000000E+00  0.00000000E+00  0.00000000E+00
  0.00000000E+00  0.00000000E+00  0.00000000E+00
  0.00000000E+00  0.00000000E+00  0.00000000E+00
  0.00000000E+00  0.00000000E+00  0.00000000E+00
  0.00000000E+00  0.00000000E+00  0.00000000E+00
  0.00000000E+00  0.00000000E+00  0.00000000E+00
  0.00000000E+00  0.00000000E+00  0.00000000E+00
  0.00000000E+00  0.00000000E+00  0.00000000E+00
  0.00000000E+00  0.00000000E+00  0.00000000E+00
  0.00000000E+00  0.00000000E+00  0.00000000E+00
  0.00000000E+00  0.00000000E+00  0.00000000E+00
  0.00000000E+00  0.00000000E+00  0.00000000E+00
  0.00000000E+00  0.00000000E+00  0.00000000E+00
  0.00000000E+00  0.00000000E+00  0.00000000E+00
  0.00000000E+00  0.00000000E+00  0.00000000E+00
  0.00000000E+00  0.00000000E+00  0.00000000E+00
  0.00000000E+00  0.00000000E+00  0.00000000E+00
  0.00000000E+00  0.00000000E+00  0.00000000E+00
  0.00000000E+00  0.00000000E+00  0.00000000E+00
  0.00000000E+00  0.00000000E+00  0.00000000E+00
  0.00000000E+00  0.00000000E+00  0.00000000E+00
  0.00000000E+00  0.00000000E+00  0.00000000E+00
  0.00000000E+00  0.00000000E+00  0.00000000E+00
  0.00000000E+00  0.00000000E+00  0.00000000E+00
  0.00000000E+00  0.00000000E+00  0.00000000E+00
  0.00000000E+00  0.00000000E+00  0.00000000E+00
  0.00000000E+00  0.00000000E+00  0.00000000E+00
  0.00000000E+00  0.00000000E+00  0.00000000E+00
