Rb Sb S O
 1.0000000000000000
    13.2194173314844061    0.0000000000000000    3.4020833685027574
    -2.6159001194004001   11.9549387810215020   -4.4766740860332845
     0.0000000000000000    0.0000000000000000   40.6897654635237558
Rb Sb S O
16 16 32 1
Selective dynamics
Cartesian
  2.2533208043059840 10.1189281542093781 17.1224859496969586   F   F   F
  1.7404877420358194  1.8360106268121243 14.0100195347909349   F   F   F
  0.7528533562728779  4.9834668600345529 17.7008172981627183   F   F   F
  3.2409551900689255  6.9714719209869491 13.4316881863251751   F   F   F
  4.4954975552738148  4.1673747995375141 16.3390234965478705   F   F   F
 -1.0343226632159139 10.8883178877101923 12.5840866602571069   F   F   F
  5.0281312095577171  1.0666208933113104 18.5484188242307901   F   F   F
 -0.5016890089320116  7.7875639814839888 14.7934819879400230   F   F   F
  0.7696295716506800  1.5683804333956874 17.3959673019642516   F   F   F
  3.2241789746911236 10.3865583476258152 13.7365381825236419   F   F   F
  0.2255663188304757  4.9004193672550427 14.3563405711419811   F   F   F
 -0.9784195570261718 10.4576250789565393 15.0440034421178161   F   F   F
  3.7682422275113279  7.0545194137664593 16.7761649133459123   F   F   F
 -0.2474562760790515  8.1377707626413596 12.3219794641862102   F   F   F
  4.2412648224208542  3.8171680183801433 18.8105260203016833   F   F   F
  4.9722281033679749  1.4973137020649627 16.0885020423700809   F   F   F
  2.2246441340701022 10.1560541746540807 23.7252958090103689   T   T   T
  1.7404877420358194  1.8360106268121243 20.7916471120448918   F   F   F
  1.1690308371473446  4.8565436574648109 24.7389315550768352   T   T   T
  3.2409551900689255  6.9714719209869491 20.2133157635791356   F   F   F
  4.7487398149297775  4.1539705164979512 23.2269620095364857   T   T   T
 -1.0343226632159139 10.8883178877101923 19.3657142375110638   F   F   F
  5.0281312095577171  1.0666208933113104 25.3300464014847471   F   F   F
 -0.4727245531031843  7.8778204377333241 21.5463794420138406   T   T   T
  0.7549264003357028  1.4491954739395811 24.2753362946949842   T   T   T
  3.2241789746911236 10.3865583476258152 20.5181657597776024   F   F   F
  0.4546789328348828  4.8956434429379696 21.3204173867271152   T   T   T
 -0.9797099168697232 10.4601023041637973 21.8188135181461007   T   T   T
  3.8234534781342884  7.0740514451460994 23.4807769619407694   T   T   T
 -0.2474562760790515  8.1377707626413596 19.1036070414401706   F   F   F
  4.5382073532028162  3.7972473208861990 25.6378272866766714   T   T   T
  4.9722281033679749  1.4973137020649627 22.8701296196240378   F   F   F
  8.8630294700481862 10.1189281542093781 18.8235276339483377   F   F   F
  8.3501964077780215  1.8360106268121243 15.7110612190423140   F   F   F
  7.3625620220150809  4.9834668600345529 19.4018589824140975   F   F   F
  9.8506638558111277  6.9714719209869491 15.1327298705765543   F   F   F
 11.1052062210160187  4.1673747995375141 18.0400651807992496   F   F   F
  5.5753860025262894 10.8883178877101923 14.2851283445084860   F   F   F
 11.6378398752999210  1.0666208933113104 20.2494605084821693   F   F   F
  6.1080196568101917  7.7875639814839888 16.4945236721914021   F   F   F
  7.3793382373928829  1.5683804333956874 19.0970089862156307   F   F   F
  9.8338876404333266 10.3865583476258152 15.4375798667750210   F   F   F
  6.8352749845726786  4.9004193672550427 16.0573822553933603   F   F   F
  5.6312891087160315 10.4576250789565393 16.7450451263691953   F   F   F
 10.3779508932535300  7.0545194137664593 18.4772065975972914   F   F   F
  6.3622523896631513  8.1377707626413596 14.0230211484375893   F   F   F
 10.8509734881630564  3.8171680183801433 20.5115677045530624   F   F   F
 11.5819367691101789  1.4973137020649627 17.7895437266214600   F   F   F
  8.9311886755361591 10.0929023122363546 25.3844029179000827   T   T   T
  8.3501964077780215  1.8360106268121243 22.4926887962962709   F   F   F
  7.7894233220900420  4.7151468376326582 26.3520303490291958   T   T   T
  9.8506638558111277  6.9714719209869491 21.9143574478305148   F   F   F
 11.3740352235295035  4.1697894437894991 24.9483048648133590   T   T   T
  5.5753860025262894 10.8883178877101923 21.0667559217624429   F   F   F
 11.6378398752999210  1.0666208933113104 27.0310880857361262   F   F   F
  6.2615273291115079  7.9417963517946264 23.2333442488070823   T   T   T
  7.3686584820930214  1.4237884421426503 25.9978264960700081   T   T   T
  9.8338876404333266 10.3865583476258152 22.2192074440289815   F   F   F
  7.0444002669610919  4.9251927437577505 22.9753480672062551   T   T   T
  5.6393865201258668 10.4597716833401364 23.5294313341272527   T   T   T
 10.4827400624386264  7.0820474530116853 25.3467961917838309   T   T   T
  6.3622523896631513  8.1377707626413596 20.8046487256915498   F   F   F
 11.1337735609689688  3.7734355457283888 27.3597244764340566   T   T   T
 11.5819367691101789  1.4973137020649627 24.5711713038754169   F   F   F
  3.0705114351036258  7.6053406251216895 24.7649431968698615   T   T   T
