Sb Pd O                                 
   1.00000000000000     
    11.5973221502275230    0.0000000000000000    0.0000000000000007
    -5.7986610751137606   10.0435755979690047    0.0000000000000007
     0.0000000000000000    0.0000000000000000   32.8768782300000026
   Sb   Pd   O 
    16    48     1
Selective dynamics
Direct
  0.3333333333333357  0.1666666666666643  0.4642857142857153   F   F   F
  0.1666666666666643  0.3333333333333357  0.3928571428571459   F   F   F
  0.4164604575000013  0.3329209150000025  0.3928571428571459   F   F   F
  0.1670790849999975  0.0835395424999987  0.3928571428571459   F   F   F
  0.4164604575000013  0.0835395424999987  0.3928571428571459   F   F   F
  0.0835395424999987  0.1670790849999975  0.4642857142857153   F   F   F
  0.3329209150000025  0.4164604575000013  0.4642857142857153   F   F   F
  0.0835395424999987  0.4164604575000013  0.4642857142857153   F   F   F
  0.3320404355438100  0.1649981824697235  0.6066202690228835   T   T   T
  0.1666666666666643  0.3333333333333357  0.5357142857142847   F   F   F
  0.4164604575000013  0.3329209150000025  0.5357142857142847   F   F   F
  0.1670790849999975  0.0835395424999987  0.5357142857142847   F   F   F
  0.4164604575000013  0.0835395424999987  0.5357142857142847   F   F   F
  0.0764133666408569  0.1655555332657528  0.6055194615387762   T   T   T
  0.3276599830321061  0.4104159256130373  0.6060844231325717   T   T   T
  0.0828969681926353  0.4178230705164268  0.6067816054077113   T   T   T
  0.3333333333333357  0.6666666666666643  0.4642857142857153   F   F   F
  0.1666666666666643  0.8333333333333357  0.3928571428571459   F   F   F
  0.4164604575000013  0.8329209150000025  0.3928571428571459   F   F   F
  0.1670790849999975  0.5835395424999987  0.3928571428571459   F   F   F
  0.4164604575000013  0.5835395424999987  0.3928571428571459   F   F   F
  0.0835395424999987  0.6670790849999975  0.4642857142857153   F   F   F
  0.3329209150000025  0.9164604575000013  0.4642857142857153   F   F   F
  0.0835395424999987  0.9164604575000013  0.4642857142857153   F   F   F
  0.3291582718959276  0.6620535158801530  0.6067860253350688   T   T   T
  0.1666666666666643  0.8333333333333357  0.5357142857142847   F   F   F
  0.4164604575000013  0.8329209150000025  0.5357142857142847   F   F   F
  0.1670790849999975  0.5835395424999987  0.5357142857142847   F   F   F
  0.4164604575000013  0.5835395424999987  0.5357142857142847   F   F   F
  0.0844110325220484  0.6690571372695899  0.6063940255778846   T   T   T
  0.3306043385408231  0.9197304131541060  0.6059310584032005   T   T   T
  0.0878265789233197  0.9190895682621019  0.6058777826148045   T   T   T
  0.8333333333333357  0.1666666666666643  0.4642857142857153   F   F   F
  0.6666666666666643  0.3333333333333357  0.3928571428571459   F   F   F
  0.9164604575000013  0.3329209150000025  0.3928571428571459   F   F   F
  0.6670790849999975  0.0835395424999987  0.3928571428571459   F   F   F
  0.9164604575000013  0.0835395424999987  0.3928571428571459   F   F   F
  0.5835395424999987  0.1670790849999975  0.4642857142857153   F   F   F
  0.8329209150000025  0.4164604575000013  0.4642857142857153   F   F   F
  0.5835395424999987  0.4164604575000013  0.4642857142857153   F   F   F
  0.8389148555789703  0.1786577662060722  0.6074045947189433   T   T   T
  0.6666666666666643  0.3333333333333357  0.5357142857142847   F   F   F
  0.9164604575000013  0.3329209150000025  0.5357142857142847   F   F   F
  0.6670790849999975  0.0835395424999987  0.5357142857142847   F   F   F
  0.9164604575000013  0.0835395424999987  0.5357142857142847   F   F   F
  0.5890900042849267  0.1652880969541073  0.6055948614693278   T   T   T
  0.8344908812571461  0.4184027142654543  0.6066784115566080   T   T   T
  0.5820411399784220  0.4097114397880262  0.6060349622272412   T   T   T
  0.8333333333333357  0.6666666666666643  0.4642857142857153   F   F   F
  0.6666666666666643  0.8333333333333357  0.3928571428571459   F   F   F
  0.9164604575000013  0.8329209150000025  0.3928571428571459   F   F   F
  0.6670790849999975  0.5835395424999987  0.3928571428571459   F   F   F
  0.9164604575000013  0.5835395424999987  0.3928571428571459   F   F   F
  0.5835395424999987  0.6670790849999975  0.4642857142857153   F   F   F
  0.8329209150000025  0.9164604575000013  0.4642857142857153   F   F   F
  0.5835395424999987  0.9164604575000013  0.4642857142857153   F   F   F
  0.8328079099711871  0.6618604440974707  0.6068234607237954   T   T   T
  0.6666666666666643  0.8333333333333357  0.5357142857142847   F   F   F
  0.9164604575000013  0.8329209150000025  0.5357142857142847   F   F   F
  0.6670790849999975  0.5835395424999987  0.5357142857142847   F   F   F
  0.9164604575000013  0.5835395424999987  0.5357142857142847   F   F   F
  0.5787515196750874  0.6573996363117089  0.6060267718438226   T   T   T
  0.8324694667941088  0.8976544738034917  0.6073378480402312   T   T   T
  0.5635230176541555  0.8968307194070704  0.6074775358292470   T   T   T
  0.7523239564891853  0.0064016766808024  0.6398718040181066   T   T   T
 
  0.00000000E+00  0.00000000E+00  0.00000000E+00
  0.00000000E+00  0.00000000E+00  0.00000000E+00
  0.00000000E+00  0.00000000E+00  0.00000000E+00
  0.00000000E+00  0.00000000E+00  0.00000000E+00
  0.00000000E+00  0.00000000E+00  0.00000000E+00
  0.00000000E+00  0.00000000E+00  0.00000000E+00
  0.00000000E+00  0.00000000E+00  0.00000000E+00
  0.00000000E+00  0.00000000E+00  0.00000000E+00
  0.00000000E+00  0.00000000E+00  0.00000000E+00
  0.00000000E+00  0.00000000E+00  0.00000000E+00
  0.00000000E+00  0.00000000E+00  0.00000000E+00
  0.00000000E+00  0.00000000E+00  0.00000000E+00
  0.00000000E+00  0.00000000E+00  0.00000000E+00
  0.00000000E+00  0.00000000E+00  0.00000000E+00
  0.00000000E+00  0.00000000E+00  0.00000000E+00
  0.00000000E+00  0.00000000E+00  0.00000000E+00
  0.00000000E+00  0.00000000E+00  0.00000000E+00
  0.00000000E+00  0.00000000E+00  0.00000000E+00
  0.00000000E+00  0.00000000E+00  0.00000000E+00
  0.00000000E+00  0.00000000E+00  0.00000000E+00
  0.00000000E+00  0.00000000E+00  0.00000000E+00
  0.00000000E+00  0.00000000E+00  0.00000000E+00
  0.00000000E+00  0.00000000E+00  0.00000000E+00
  0.00000000E+00  0.00000000E+00  0.00000000E+00
  0.00000000E+00  0.00000000E+00  0.00000000E+00
  0.00000000E+00  0.00000000E+00  0.00000000E+00
  0.00000000E+00  0.00000000E+00  0.00000000E+00
  0.00000000E+00  0.00000000E+00  0.00000000E+00
  0.00000000E+00  0.00000000E+00  0.00000000E+00
  0.00000000E+00  0.00000000E+00  0.00000000E+00
  0.00000000E+00  0.00000000E+00  0.00000000E+00
  0.00000000E+00  0.00000000E+00  0.00000000E+00
  0.00000000E+00  0.00000000E+00  0.00000000E+00
  0.00000000E+00  0.00000000E+00  0.00000000E+00
  0.00000000E+00  0.00000000E+00  0.00000000E+00
  0.00000000E+00  0.00000000E+00  0.00000000E+00
  0.00000000E+00  0.00000000E+00  0.00000000E+00
  0.00000000E+00  0.00000000E+00  0.00000000E+00
  0.00000000E+00  0.00000000E+00  0.00000000E+00
  0.00000000E+00  0.00000000E+00  0.00000000E+00
  0.00000000E+00  0.00000000E+00  0.00000000E+00
  0.00000000E+00  0.00000000E+00  0.00000000E+00
  0.00000000E+00  0.00000000E+00  0.00000000E+00
  0.00000000E+00  0.00000000E+00  0.00000000E+00
  0.00000000E+00  0.00000000E+00  0.00000000E+00
  0.00000000E+00  0.00000000E+00  0.00000000E+00
  0.00000000E+00  0.00000000E+00  0.00000000E+00
  0.00000000E+00  0.00000000E+00  0.00000000E+00
  0.00000000E+00  0.00000000E+00  0.00000000E+00
  0.00000000E+00  0.00000000E+00  0.00000000E+00
  0.00000000E+00  0.00000000E+00  0.00000000E+00
  0.00000000E+00  0.00000000E+00  0.00000000E+00
  0.00000000E+00  0.00000000E+00  0.00000000E+00
  0.00000000E+00  0.00000000E+00  0.00000000E+00
  0.00000000E+00  0.00000000E+00  0.00000000E+00
  0.00000000E+00  0.00000000E+00  0.00000000E+00
  0.00000000E+00  0.00000000E+00  0.00000000E+00
  0.00000000E+00  0.00000000E+00  0.00000000E+00
  0.00000000E+00  0.00000000E+00  0.00000000E+00
  0.00000000E+00  0.00000000E+00  0.00000000E+00
  0.00000000E+00  0.00000000E+00  0.00000000E+00
  0.00000000E+00  0.00000000E+00  0.00000000E+00
  0.00000000E+00  0.00000000E+00  0.00000000E+00
  0.00000000E+00  0.00000000E+00  0.00000000E+00
  0.00000000E+00  0.00000000E+00  0.00000000E+00
