Sb Pd O
 1.0000000000000000
    11.5973221502275230    0.0000000000000000    0.0000000000000007
    -5.7986610751137606   10.0435755979690047    0.0000000000000007
     0.0000000000000000    0.0000000000000000   32.8768782300000026
Sb Pd O
16 48 1
Selective dynamics
Cartesian
  2.8993305375568807  1.6739292663281677 15.2642648925000017   F   F   F
 -0.0000000000000004  3.3478585326563355 12.9159164475000008   F   F   F
  2.8993305375568803  3.3437163779475134 12.9159164475000008   F   F   F
  1.4532524799826856  0.8390357105184936 12.9159164475000008   F   F   F
  4.3454085951310768  0.8390357105184941 12.9159164475000008   F   F   F
 -0.0000000000000008  1.6780714210369887 15.2642648925000017   F   F   F
  1.4460780575741961  4.1827520884660077 15.2642648925000017   F   F   F
 -1.4460780575741956  4.1827520884660085 15.2642648925000017   F   F   F
  2.8940113597517039  1.6571717191621875 19.9437807165150893   T   T   T
 -0.0000000000000004  3.3478585326563355 17.6126133375000009   F   F   F
  2.8993305375568803  3.3437163779475134 17.6126133375000009   F   F   F
  1.4532524799826856  0.8390357105184936 17.6126133375000009   F   F   F
  4.3454085951310768  0.8390357105184941 17.6126133375000009   F   F   F
 -0.0738099970003540  1.6627695140166587 19.9075896029054142   T   T   T
  1.4201155265023413  4.1220433755049486 19.9261637764293873   T   T   T
 -1.4614315298809379  4.1964375953072928 19.9490849531931467   T   T   T
  0.0000000000000004  6.6957170653126701 15.2642648925000017   F   F   F
 -2.8993305375568807  8.3696463316408369 12.9159164475000008   F   F   F
  0.0000000000000000  8.3655041769320153 12.9159164475000008   F   F   F
 -1.4460780575741947  5.8608235095029961 12.9159164475000008   F   F   F
  1.4460780575741965  5.8608235095029961 12.9159164475000008   F   F   F
 -2.8993305375568812  6.6998592200214908 15.2642648925000017   F   F   F
 -1.4532524799826843  9.2045398874505100 15.2642648925000017   F   F   F
 -4.3454085951310759  9.2045398874505118 15.2642648925000017   F   F   F
 -0.0216694345872379  6.6493845366435158 19.9492302666068149   T   T   T
 -2.8993305375568807  8.3696463316408369 17.6126133375000009   F   F   F
  0.0000000000000000  8.3655041769320153 17.6126133375000009   F   F   F
 -1.4460780575741947  5.8608235095029961 17.6126133375000009   F   F   F
  1.4460780575741965  5.8608235095029961 17.6126133375000009   F   F   F
 -2.9006936417207103  6.7197259375278655 19.9363425383236397   T   T   T
 -1.4990799280342526  9.2373819342645493 19.9211216228969583   T   T   T
 -4.3109357748984536  9.2309455601451482 19.9193700812894399   T   T   T
  8.6979916126706414  1.6739292663281677 15.2642648925000017   F   F   F
  5.7986610751137615  3.3478585326563355 12.9159164475000008   F   F   F
  8.6979916126706414  3.3437163779475134 12.9159164475000008   F   F   F
  7.2519135550964471  0.8390357105184936 12.9159164475000008   F   F   F
 10.1440696702448392  0.8390357105184941 12.9159164475000008   F   F   F
  5.7986610751137606  1.6780714210369887 15.2642648925000017   F   F   F
  7.2447391326879576  4.1827520884660077 15.2642648925000017   F   F   F
  4.3525830175395654  4.1827520884660085 15.2642648925000017   F   F   F
  8.6931900020949726  1.7943627810549234 19.9695668969171543   T   T   T
  5.7986610751137615  3.3478585326563355 17.6126133375000009   F   F   F
  8.6979916126706414  3.3437163779475134 17.6126133375000009   F   F   F
  7.2519135550964471  0.8390357105184936 17.6126133375000009   F   F   F
 10.1440696702448392  0.8390357105184941 17.6126133375000009   F   F   F
  5.8734169011837922  1.6600834972030178 19.9100685172407843   T   T   T
  7.2516840484333649  4.2022592911205026 19.9456922615164380   T   T   T
  4.3743408270878277  4.1149678188637377 19.9245376562676988   T   T   T
  5.7986610751137615  6.6957170653126701 15.2642648925000017   F   F   F
  2.8993305375568807  8.3696463316408369 12.9159164475000008   F   F   F
  5.7986610751137615  8.3655041769320153 12.9159164475000008   F   F   F
  4.3525830175395672  5.8608235095029961 12.9159164475000008   F   F   F
  7.2447391326879576  5.8608235095029961 12.9159164475000008   F   F   F
  2.8993305375568803  6.6998592200214908 15.2642648925000017   F   F   F
  4.3454085951310777  9.2045398874505100 15.2642648925000017   F   F   F
  1.4532524799826856  9.2045398874505118 15.2642648925000017   F   F   F
  5.8204372268479911  6.6474454055982966 19.9504610253235164   T   T   T
  2.8993305375568807  8.3696463316408369 17.6126133375000009   F   F   F
  5.7986610751137615  8.3655041769320153 17.6126133375000009   F   F   F
  4.3525830175395672  5.8608235095029961 17.6126133375000009   F   F   F
  7.2447391326879576  5.8608235095029961 17.6126133375000009   F   F   F
  2.8999301367310459  6.6026429453739830 19.9242683820294637   T   T   T
  4.4492225304933459  9.0156605685004525 19.9673724744890073   T   T   T
  1.3349405912115540  9.0073871289458403 19.9719649729187090   T   T   T
  2.8891610562406047 10.1078713216664209 21.0369873835136794   T   T   T
