Mo Pd
 1.0000000000000000
     8.4157636701125895    0.0000000000000000    0.0000000000000005
    -4.2078818350562965    7.2882651305636630    0.0000000000000005
     0.0000000000000000    0.0000000000000000   54.9880536551249932
Mo Pd
27 81
Selective dynamics
Cartesian
  0.0000000000000000  0.0000000000000000 37.8332024106538185   F   F   F
 -0.0000000000000003  1.6196144734585920 19.5038511922788160   F   F   F
  1.4026272783520979  0.8098072367292960 28.6685268014663137   F   F   F
  1.4026272783520979  0.8098072367292960 35.5996639212837138   F   F   F
 -0.0000000000000003  1.6196144734585920 33.2508646060600626   F   F   F
  0.0000000000000000  0.0000000000000000 30.9020652908364184   F   F   F
  0.0000000000000000  0.0000000000000000 17.2703127029087113   F   F   F
  1.4026272783520988  0.8098072367292960 14.9215133876850654   F   F   F
 -0.0000405242331002  1.6195687008562578 40.0573561968999812   T   T   T
 -0.0000000000000003  1.6196144734585920 26.4349883120962090   F   F   F
  0.0000000000000005  0.0000000000000003 24.0861889968725613   F   F   F
  1.4026272783520979  0.8098072367292960 21.7373896816489278   F   F   F
 -1.4026272783520990  2.4294217101878877 37.8332024106538185   F   F   F
 -1.4026272783520994  4.0490361836464794 19.5038511922788160   F   F   F
 -0.0000000000000011  3.2392289469171835 28.6685268014663137   F   F   F
 -0.0000000000000011  3.2392289469171835 35.5996639212837138   F   F   F
 -1.4026272783520994  4.0490361836464794 33.2508646060600626   F   F   F
 -1.4026272783520990  2.4294217101878877 30.9020652908364184   F   F   F
 -1.4026272783520990  2.4294217101878877 17.2703127029087113   F   F   F
 -0.0000000000000002  3.2392289469171835 14.9215133876850654   F   F   F
 -1.4026187019694021  4.0490692259009515 40.0574252640149453   T   T   T
 -1.4026272783520994  4.0490361836464794 26.4349883120962090   F   F   F
 -1.4026272783520985  2.4294217101878881 24.0861889968725613   F   F   F
 -0.0000000000000011  3.2392289469171835 21.7373896816489278   F   F   F
 -2.8052545567041980  4.8588434203757753 37.8332024106538185   F   F   F
 -2.8052545567041984  6.4784578938343671 19.5038511922788160   F   F   F
 -1.4026272783521001  5.6686506571050712 28.6685268014663137   F   F   F
 -1.4026272783521001  5.6686506571050712 35.5996639212837138   F   F   F
 -2.8052545567041984  6.4784578938343671 33.2508646060600626   F   F   F
 -2.8052545567041980  4.8588434203757753 30.9020652908364184   F   F   F
 -2.8052545567041980  4.8588434203757753 17.2703127029087113   F   F   F
 -1.4026272783520992  5.6686506571050712 14.9215133876850654   F   F   F
 -2.8052360322643035  6.4785253318023948 40.0574034158858368   T   T   T
 -2.8052545567041984  6.4784578938343671 26.4349883120962090   F   F   F
 -2.8052545567041975  4.8588434203757753 24.0861889968725613   F   F   F
 -1.4026272783521001  5.6686506571050712 21.7373896816489278   F   F   F
  2.8052545567041962  0.0000000000000000 37.8332024106538185   F   F   F
  2.8052545567041958  1.6196144734585920 19.5038511922788160   F   F   F
  4.2078818350562939  0.8098072367292960 28.6685268014663137   F   F   F
  4.2078818350562939  0.8098072367292960 35.5996639212837138   F   F   F
  2.8052545567041958  1.6196144734585920 33.2508646060600626   F   F   F
  2.8052545567041962  0.0000000000000000 30.9020652908364184   F   F   F
  2.8052545567041962  0.0000000000000000 17.2703127029087113   F   F   F
  4.2078818350562948  0.8098072367292960 14.9215133876850654   F   F   F
  2.8051122563100503  1.6197029899249407 40.0570789124836111   T   T   T
  2.8052545567041958  1.6196144734585920 26.4349883120962090   F   F   F
  2.8052545567041967  0.0000000000000003 24.0861889968725613   F   F   F
  4.2078818350562939  0.8098072367292960 21.7373896816489278   F   F   F
  1.4026272783520972  2.4294217101878877 37.8332024106538185   F   F   F
  1.4026272783520968  4.0490361836464794 19.5038511922788160   F   F   F
  2.8052545567041953  3.2392289469171835 28.6685268014663137   F   F   F
  2.8052545567041953  3.2392289469171835 35.5996639212837138   F   F   F
  1.4026272783520968  4.0490361836464794 33.2508646060600626   F   F   F
  1.4026272783520972  2.4294217101878877 30.9020652908364184   F   F   F
  1.4026272783520972  2.4294217101878877 17.2703127029087113   F   F   F
  2.8052545567041962  3.2392289469171835 14.9215133876850654   F   F   F
  1.4026000599723689  4.0490452665335974 40.0570952999192187   T   T   T
  1.4026272783520968  4.0490361836464794 26.4349883120962090   F   F   F
  1.4026272783520977  2.4294217101878881 24.0861889968725613   F   F   F
  2.8052545567041953  3.2392289469171835 21.7373896816489278   F   F   F
 -0.0000000000000018  4.8588434203757753 37.8332024106538185   F   F   F
 -0.0000000000000021  6.4784578938343671 19.5038511922788160   F   F   F
  1.4026272783520961  5.6686506571050712 28.6685268014663137   F   F   F
  1.4026272783520961  5.6686506571050712 35.5996639212837138   F   F   F
 -0.0000000000000021  6.4784578938343671 33.2508646060600626   F   F   F
 -0.0000000000000018  4.8588434203757753 30.9020652908364184   F   F   F
 -0.0000000000000018  4.8588434203757753 17.2703127029087113   F   F   F
  1.4026272783520970  5.6686506571050712 14.9215133876850654   F   F   F
 -0.0000768319412735  6.4785871705063087 40.0571531436658361   T   T   T
 -0.0000000000000021  6.4784578938343671 26.4349883120962090   F   F   F
 -0.0000000000000013  4.8588434203757753 24.0861889968725613   F   F   F
  1.4026272783520961  5.6686506571050712 21.7373896816489278   F   F   F
  5.6105091134083924  0.0000000000000000 37.8332024106538185   F   F   F
  5.6105091134083924  1.6196144734585920 19.5038511922788160   F   F   F
  7.0131363917604901  0.8098072367292960 28.6685268014663137   F   F   F
  7.0131363917604901  0.8098072367292960 35.5996639212837138   F   F   F
  5.6105091134083924  1.6196144734585920 33.2508646060600626   F   F   F
  5.6105091134083924  0.0000000000000000 30.9020652908364184   F   F   F
  5.6105091134083924  0.0000000000000000 17.2703127029087113   F   F   F
  7.0131363917604910  0.8098072367292960 14.9215133876850654   F   F   F
  5.6104364488589855  1.6196761933788599 40.0572267885805005   T   T   T
  5.6105091134083924  1.6196144734585920 26.4349883120962090   F   F   F
  5.6105091134083933  0.0000000000000003 24.0861889968725613   F   F   F
  7.0131363917604901  0.8098072367292960 21.7373896816489278   F   F   F
  4.2078818350562930  2.4294217101878877 37.8332024106538185   F   F   F
  4.2078818350562930  4.0490361836464794 19.5038511922788160   F   F   F
  5.6105091134083906  3.2392289469171835 28.6685268014663137   F   F   F
  5.6105091134083906  3.2392289469171835 35.5996639212837138   F   F   F
  4.2078818350562930  4.0490361836464794 33.2508646060600626   F   F   F
  4.2078818350562930  2.4294217101878877 30.9020652908364184   F   F   F
  4.2078818350562930  2.4294217101878877 17.2703127029087113   F   F   F
  5.6105091134083915  3.2392289469171835 14.9215133876850654   F   F   F
  4.2079133767290902  4.0491147168004895 40.0572815766577506   T   T   T
  4.2078818350562930  4.0490361836464794 26.4349883120962090   F   F   F
  4.2078818350562939  2.4294217101878881 24.0861889968725613   F   F   F
  5.6105091134083906  3.2392289469171835 21.7373896816489278   F   F   F
  2.8052545567041944  4.8588434203757753 37.8332024106538185   F   F   F
  2.8052545567041940  6.4784578938343671 19.5038511922788160   F   F   F
  4.2078818350562921  5.6686506571050712 28.6685268014663137   F   F   F
  4.2078818350562921  5.6686506571050712 35.5996639212837138   F   F   F
  2.8052545567041940  6.4784578938343671 33.2508646060600626   F   F   F
  2.8052545567041944  4.8588434203757753 30.9020652908364184   F   F   F
  2.8052545567041944  4.8588434203757753 17.2703127029087113   F   F   F
  4.2078818350562930  5.6686506571050712 14.9215133876850654   F   F   F
  2.8052861309114356  6.4785214676649971 40.0572421420152196   T   T   T
  2.8052545567041940  6.4784578938343671 26.4349883120962090   F   F   F
  2.8052545567041949  4.8588434203757753 24.0861889968725613   F   F   F
  4.2078818350562921  5.6686506571050712 21.7373896816489278   F   F   F
