Nb Ni Te H O                            
   1.00000000000000     
    15.2712326791044521    0.0000000000000000   -0.0389428208742573
    -0.0008273127015165   10.3351476022520892    3.1708026260560773
     0.0000000000000000    0.0000000000000000   42.9198283329956283
   Nb   Ni   Te   H    O 
    16    40    48     1     1
Selective dynamics
Direct
  0.3126821075000024  0.4526124449999998  0.5831159916666664   F   F   F
  0.0626821075000024  0.9526124449999998  0.4164493250000021   F   F   F
  0.0626184400000014  0.4602864599999990  0.5831151733333328   F   F   F
  0.3126184400000014  0.9602864599999990  0.4164485066666685   F   F   F
  0.1873178924999976  0.5473875550000002  0.4168840083333336   F   F   F
  0.4373178924999976  0.0473875550000002  0.5835506749999979   F   F   F
  0.4373815599999986  0.5397135400000010  0.4168848266666672   F   F   F
  0.1873815599999986  0.0397135400000010  0.5835514933333315   F   F   F
  0.3137821449999976  0.3429298799999998  0.4148229166666653   F   F   F
  0.0637821449999976  0.8429298799999998  0.5814895833333367   F   F   F
  0.0612431500000028  0.3456829300000024  0.4145063166666674   F   F   F
  0.3112431500000028  0.8456829300000024  0.5811729833333317   F   F   F
  0.1862178550000024  0.6570701200000002  0.5851770833333347   F   F   F
  0.4362178550000024  0.1570701200000002  0.4185104166666633   F   F   F
  0.4387568499999972  0.6543170699999976  0.5854936833333326   F   F   F
  0.1887568499999972  0.1543170699999976  0.4188270166666683   F   F   F
  0.3131006300000010  0.7371406899999968  0.3978672666666654   F   F   F
  0.0631006300000010  0.2371406899999968  0.5645339333333368   F   F   F
  0.0614853399999973  0.7366909799999988  0.3974964433333312   F   F   F
  0.3114853399999973  0.2366909799999988  0.5641631100000026   F   F   F
  0.1868729518627035  0.2632736691482265  0.6019487468061655   T   T   T
  0.4368993699999990  0.7628593100000032  0.4354660666666703   F   F   F
  0.4382307245065746  0.2626426919545395  0.6019606242493580   T   T   T
  0.1885146600000027  0.7633090200000012  0.4358368899999974   F   F   F
  0.0630328240663616  0.6166998151815619  0.6237404862143094   T   T   T
  0.3122185725000008  0.1124066349999993  0.4633602783333330   F   F   F
  0.4377814274999992  0.3875933650000007  0.3699730550000027   F   F   F
  0.1877814274999992  0.8875933650000007  0.5366397216666670   F   F   F
  0.3090177174999980  0.2065692349999964  0.3743134783333346   F   F   F
  0.0590177174999980  0.7065692349999964  0.5409801449999989   F   F   F
  0.0650183500000026  0.2025331800000032  0.3763381733333304   F   F   F
  0.3150183500000026  0.7025331800000032  0.5430048400000018   F   F   F
  0.1891029629478069  0.7932719153858727  0.6264719750580170   T   T   T
  0.4409822825000020  0.2934307649999965  0.4590198550000011   F   F   F
  0.4335195996699071  0.7990763415188837  0.6237355332311978   T   T   T
  0.1849816499999974  0.2974668199999968  0.4569951599999982   F   F   F
  0.3104614699999999  0.5612521600000022  0.3668148933333342   F   F   F
  0.0604614699999999  0.0612521600000022  0.5334815599999985   F   F   F
  0.0639069550000002  0.5639699500000006  0.3655532666666659   F   F   F
  0.3139069550000002  0.0639699500000006  0.5322199333333302   F   F   F
  0.1892901947002557  0.4390708032503241  0.6332327186056688   T   T   T
  0.4395385300000001  0.9387478399999978  0.4665184400000015   F   F   F
  0.4370601353847832  0.4372799783702987  0.6328884100611418   T   T   T
  0.1860930449999998  0.9360300499999994  0.4677800666666698   F   F   F
  0.3134643249999982  0.6065555899999993  0.4621706266666692   F   F   F
  0.0634085050622559  0.1074413674201580  0.6289290703001384   T   T   T
  0.0622205075000011  0.6099406949999988  0.4619624516666647   F   F   F
  0.3122844409778196  0.1110947082510805  0.6288672847653203   T   T   T
  0.1865356750000018  0.3934444100000007  0.5378293733333308   F   F   F
  0.4365356750000018  0.8934444100000007  0.3711627066666665   F   F   F
  0.4377794924999989  0.3900593050000012  0.5380375483333353   F   F   F
  0.1877794924999989  0.8900593050000012  0.3713708816666639   F   F   F
  0.8126821075000024  0.4526124449999998  0.5831159916666664   F   F   F
  0.5626821075000024  0.9526124449999998  0.4164493250000021   F   F   F
  0.5626184400000014  0.4602864599999990  0.5831151733333328   F   F   F
  0.8126184400000014  0.9602864599999990  0.4164485066666685   F   F   F
  0.6873178924999976  0.5473875550000002  0.4168840083333336   F   F   F
  0.9373178924999976  0.0473875550000002  0.5835506749999979   F   F   F
  0.9373815599999986  0.5397135400000010  0.4168848266666672   F   F   F
  0.6873815599999986  0.0397135400000010  0.5835514933333315   F   F   F
  0.8137821449999976  0.3429298799999998  0.4148229166666653   F   F   F
  0.5637821449999976  0.8429298799999998  0.5814895833333367   F   F   F
  0.5612431500000028  0.3456829300000024  0.4145063166666674   F   F   F
  0.8112431500000028  0.8456829300000024  0.5811729833333317   F   F   F
  0.6862178550000024  0.6570701200000002  0.5851770833333347   F   F   F
  0.9362178550000024  0.1570701200000002  0.4185104166666633   F   F   F
  0.9387568499999972  0.6543170699999976  0.5854936833333326   F   F   F
  0.6887568499999972  0.1543170699999976  0.4188270166666683   F   F   F
  0.8131006300000010  0.7371406899999968  0.3978672666666654   F   F   F
  0.5631006300000010  0.2371406899999968  0.5645339333333368   F   F   F
  0.5614853399999973  0.7366909799999988  0.3974964433333312   F   F   F
  0.8114853399999973  0.2366909799999988  0.5641631100000026   F   F   F
  0.6872815139811479  0.2614113645255287  0.6016680421009752   T   T   T
  0.9368993699999990  0.7628593100000032  0.4354660666666703   F   F   F
  0.9384974578894258  0.2638746962701575  0.6021634776600351   T   T   T
  0.6885146600000027  0.7633090200000012  0.4358368899999974   F   F   F
  0.5633944173201897  0.6223277643281691  0.6301102197138491   T   T   T
  0.8122185725000008  0.1124066349999993  0.4633602783333330   F   F   F
  0.9377814274999992  0.3875933650000007  0.3699730550000027   F   F   F
  0.6877814274999992  0.8875933650000007  0.5366397216666670   F   F   F
  0.8090177174999980  0.2065692349999964  0.3743134783333346   F   F   F
  0.5590177174999980  0.7065692349999964  0.5409801449999989   F   F   F
  0.5650183500000026  0.2025331800000032  0.3763381733333304   F   F   F
  0.8150183500000026  0.7025331800000032  0.5430048400000018   F   F   F
  0.6929240083208583  0.7951382296952048  0.6263576529071386   T   T   T
  0.9409822825000020  0.2934307649999965  0.4590198550000011   F   F   F
  0.9357958774751651  0.7980191383372031  0.6240476273040940   T   T   T
  0.6849816499999974  0.2974668199999968  0.4569951599999982   F   F   F
  0.8104614699999999  0.5612521600000022  0.3668148933333342   F   F   F
  0.5604614699999999  0.0612521600000022  0.5334815599999985   F   F   F
  0.5639069550000002  0.5639699500000006  0.3655532666666659   F   F   F
  0.8139069550000002  0.0639699500000006  0.5322199333333302   F   F   F
  0.6890096594758361  0.4367480468464038  0.6328228892436911   T   T   T
  0.9395385300000001  0.9387478399999978  0.4665184400000015   F   F   F
  0.9364951343040886  0.4380645517709922  0.6336856147461134   T   T   T
  0.6860930449999998  0.9360300499999994  0.4677800666666698   F   F   F
  0.8134643249999982  0.6065555899999993  0.4621706266666692   F   F   F
  0.5628905484623061  0.1062886929632967  0.6288799760814001   T   T   T
  0.5622205075000011  0.6099406949999988  0.4619624516666647   F   F   F
  0.8128935025893469  0.1104906765314126  0.6289263455459917   T   T   T
  0.6865356750000018  0.3934444100000007  0.5378293733333308   F   F   F
  0.9365356750000018  0.8934444100000007  0.3711627066666665   F   F   F
  0.9377794924999989  0.3900593050000012  0.5380375483333353   F   F   F
  0.6877794924999989  0.8900593050000012  0.3713708816666639   F   F   F
  0.5239669938673259  0.5340398875553518  0.6872615409511909   T   T   T
  0.5672134896088821  0.5980830436228359  0.6759678509193563   T   T   T
 
  0.00000000E+00  0.00000000E+00  0.00000000E+00
  0.00000000E+00  0.00000000E+00  0.00000000E+00
  0.00000000E+00  0.00000000E+00  0.00000000E+00
  0.00000000E+00  0.00000000E+00  0.00000000E+00
  0.00000000E+00  0.00000000E+00  0.00000000E+00
  0.00000000E+00  0.00000000E+00  0.00000000E+00
  0.00000000E+00  0.00000000E+00  0.00000000E+00
  0.00000000E+00  0.00000000E+00  0.00000000E+00
  0.00000000E+00  0.00000000E+00  0.00000000E+00
  0.00000000E+00  0.00000000E+00  0.00000000E+00
  0.00000000E+00  0.00000000E+00  0.00000000E+00
  0.00000000E+00  0.00000000E+00  0.00000000E+00
  0.00000000E+00  0.00000000E+00  0.00000000E+00
  0.00000000E+00  0.00000000E+00  0.00000000E+00
  0.00000000E+00  0.00000000E+00  0.00000000E+00
  0.00000000E+00  0.00000000E+00  0.00000000E+00
  0.00000000E+00  0.00000000E+00  0.00000000E+00
  0.00000000E+00  0.00000000E+00  0.00000000E+00
  0.00000000E+00  0.00000000E+00  0.00000000E+00
  0.00000000E+00  0.00000000E+00  0.00000000E+00
  0.00000000E+00  0.00000000E+00  0.00000000E+00
  0.00000000E+00  0.00000000E+00  0.00000000E+00
  0.00000000E+00  0.00000000E+00  0.00000000E+00
  0.00000000E+00  0.00000000E+00  0.00000000E+00
  0.00000000E+00  0.00000000E+00  0.00000000E+00
  0.00000000E+00  0.00000000E+00  0.00000000E+00
  0.00000000E+00  0.00000000E+00  0.00000000E+00
  0.00000000E+00  0.00000000E+00  0.00000000E+00
  0.00000000E+00  0.00000000E+00  0.00000000E+00
  0.00000000E+00  0.00000000E+00  0.00000000E+00
  0.00000000E+00  0.00000000E+00  0.00000000E+00
  0.00000000E+00  0.00000000E+00  0.00000000E+00
  0.00000000E+00  0.00000000E+00  0.00000000E+00
  0.00000000E+00  0.00000000E+00  0.00000000E+00
  0.00000000E+00  0.00000000E+00  0.00000000E+00
  0.00000000E+00  0.00000000E+00  0.00000000E+00
  0.00000000E+00  0.00000000E+00  0.00000000E+00
  0.00000000E+00  0.00000000E+00  0.00000000E+00
  0.00000000E+00  0.00000000E+00  0.00000000E+00
  0.00000000E+00  0.00000000E+00  0.00000000E+00
  0.00000000E+00  0.00000000E+00  0.00000000E+00
  0.00000000E+00  0.00000000E+00  0.00000000E+00
  0.00000000E+00  0.00000000E+00  0.00000000E+00
  0.00000000E+00  0.00000000E+00  0.00000000E+00
  0.00000000E+00  0.00000000E+00  0.00000000E+00
  0.00000000E+00  0.00000000E+00  0.00000000E+00
  0.00000000E+00  0.00000000E+00  0.00000000E+00
  0.00000000E+00  0.00000000E+00  0.00000000E+00
  0.00000000E+00  0.00000000E+00  0.00000000E+00
  0.00000000E+00  0.00000000E+00  0.00000000E+00
  0.00000000E+00  0.00000000E+00  0.00000000E+00
  0.00000000E+00  0.00000000E+00  0.00000000E+00
  0.00000000E+00  0.00000000E+00  0.00000000E+00
  0.00000000E+00  0.00000000E+00  0.00000000E+00
  0.00000000E+00  0.00000000E+00  0.00000000E+00
  0.00000000E+00  0.00000000E+00  0.00000000E+00
  0.00000000E+00  0.00000000E+00  0.00000000E+00
  0.00000000E+00  0.00000000E+00  0.00000000E+00
  0.00000000E+00  0.00000000E+00  0.00000000E+00
  0.00000000E+00  0.00000000E+00  0.00000000E+00
  0.00000000E+00  0.00000000E+00  0.00000000E+00
  0.00000000E+00  0.00000000E+00  0.00000000E+00
  0.00000000E+00  0.00000000E+00  0.00000000E+00
  0.00000000E+00  0.00000000E+00  0.00000000E+00
  0.00000000E+00  0.00000000E+00  0.00000000E+00
  0.00000000E+00  0.00000000E+00  0.00000000E+00
  0.00000000E+00  0.00000000E+00  0.00000000E+00
  0.00000000E+00  0.00000000E+00  0.00000000E+00
  0.00000000E+00  0.00000000E+00  0.00000000E+00
  0.00000000E+00  0.00000000E+00  0.00000000E+00
  0.00000000E+00  0.00000000E+00  0.00000000E+00
  0.00000000E+00  0.00000000E+00  0.00000000E+00
  0.00000000E+00  0.00000000E+00  0.00000000E+00
  0.00000000E+00  0.00000000E+00  0.00000000E+00
  0.00000000E+00  0.00000000E+00  0.00000000E+00
  0.00000000E+00  0.00000000E+00  0.00000000E+00
  0.00000000E+00  0.00000000E+00  0.00000000E+00
  0.00000000E+00  0.00000000E+00  0.00000000E+00
  0.00000000E+00  0.00000000E+00  0.00000000E+00
  0.00000000E+00  0.00000000E+00  0.00000000E+00
  0.00000000E+00  0.00000000E+00  0.00000000E+00
  0.00000000E+00  0.00000000E+00  0.00000000E+00
  0.00000000E+00  0.00000000E+00  0.00000000E+00
  0.00000000E+00  0.00000000E+00  0.00000000E+00
  0.00000000E+00  0.00000000E+00  0.00000000E+00
  0.00000000E+00  0.00000000E+00  0.00000000E+00
  0.00000000E+00  0.00000000E+00  0.00000000E+00
  0.00000000E+00  0.00000000E+00  0.00000000E+00
  0.00000000E+00  0.00000000E+00  0.00000000E+00
  0.00000000E+00  0.00000000E+00  0.00000000E+00
  0.00000000E+00  0.00000000E+00  0.00000000E+00
  0.00000000E+00  0.00000000E+00  0.00000000E+00
  0.00000000E+00  0.00000000E+00  0.00000000E+00
  0.00000000E+00  0.00000000E+00  0.00000000E+00
  0.00000000E+00  0.00000000E+00  0.00000000E+00
  0.00000000E+00  0.00000000E+00  0.00000000E+00
  0.00000000E+00  0.00000000E+00  0.00000000E+00
  0.00000000E+00  0.00000000E+00  0.00000000E+00
  0.00000000E+00  0.00000000E+00  0.00000000E+00
  0.00000000E+00  0.00000000E+00  0.00000000E+00
  0.00000000E+00  0.00000000E+00  0.00000000E+00
  0.00000000E+00  0.00000000E+00  0.00000000E+00
  0.00000000E+00  0.00000000E+00  0.00000000E+00
  0.00000000E+00  0.00000000E+00  0.00000000E+00
  0.00000000E+00  0.00000000E+00  0.00000000E+00
  0.00000000E+00  0.00000000E+00  0.00000000E+00
