Nb Ni Te H O
 1.0000000000000000
    15.2712326791044521    0.0000000000000000   -0.0389428208742573
    -0.0008273127015165   10.3351476022520892    3.1708026260560773
     0.0000000000000000    0.0000000000000000   42.9198283329956283
Nb Ni Te H O
16 40 48 1 1
Selective dynamics
Cartesian
  4.7746667662006406  4.6778164256912049 26.4502062664465569   F   F   F
  0.9564449400737675  9.8453902268172495 20.8920385625272189   F   F   F
  0.9558799664078499  4.7571285034181008 26.4842421152453689   F   F   F
  4.7732744798332050  9.9247023045441463 20.9066030008889072   F   F   F
  2.8601222606500682  5.6573311765608816 19.6209532821680313   F   F   F
  6.6783440867769386  0.4897573754348375 25.1791209860873693   F   F   F
  6.6789090604428614  5.5780190988339848 19.5869174333692158   F   F   F
  2.8615145470175065  0.4104452977079412 25.1645565477256774   F   F   F
  4.7915564365980421  3.5442309270225940 18.8792717741167060   F   F   F
  0.9733346104711704  8.7118047281486390 27.6277135145292476   F   F   F
  0.9349724057726138  3.5726841051289751 18.8842473154821953   F   F   F
  4.7523669191979678  8.7402579062550210 27.6132176454576097   F   F   F
  2.8432325902526698  6.7909166752294947 27.1918877744978786   F   F   F
  6.6614544163795406  1.6233428741034488 18.4434460340853335   F   F   F
  6.6998166210780985  6.7624634971231119 27.1869122331323929   F   F   F
  2.8824221076527432  1.5948896959970684 18.4579419031569749   F   F   F
  4.7808227268485535  7.6184578347759491 19.4015293985266126   F   F   F
  0.9634282134231977  2.4508840336499054 24.9791685128830778   F   F   F
  0.9383474596890051  7.6138100155477382 19.3939863922368083   F   F   F
  4.7565692858158766  2.4462362144216945 24.9521540961561428   F   F   F
  2.8535625196759615  2.7209722304333726 26.6630483597984878   T   T   T
  6.6713608134275129  7.8842635686021829 21.0919910357315104   F   F   F
  6.6921060734374223  2.7144509880029637 26.6517688527629986   T   T   T
  2.8782197410348340  7.8889113878303929 21.1190054524584454   F   F   F
  0.9620787191483551  6.3736836161830102 28.7238133101466175   T   T   T
  4.7678694719484733  1.1617391641974739 20.2316041838973888   F   F   F
  6.6851413810291085  4.0058346369285669 17.0911136243046542   F   F   F
  2.8669195549022364  9.1734084380546115 25.8395553647172029   F   F   F
  4.7189105685564101  2.1349235338092960 16.7084264839739696   F   F   F
  0.9006887424295393  7.3024973349353406 25.4568682243865112   F   F   F
  0.9927427929891610  2.0932103096534900 16.7920305356697206   F   F   F
  4.8101373064145152  7.2607841107795350 25.5210008656451350   F   F   F
  2.8871790635527179  8.1985823342342563 29.3960140945920827   T   T   T
  6.7341002844211664  3.0326502673167459 20.6142913242280770   F   F   F
  6.6197175915045250  8.2585719350652678 29.2874528974644051   T   T   T
  2.8246517204361941  3.0743634914725524 20.5501586829694531   F   F   F
  4.7406650152260879  5.8006239156828023 17.5111618292458466   F   F   F
  0.9232705018007338  0.6330501145567591 23.0888009436023118   F   F   F
  0.9754714001151522  5.8287126764847281 17.4752321332746412   F   F   F
  4.7936932262420235  0.6611388753586840 23.0333998371939792   F   F   F
  2.8903313582882184  4.5378615594314589 28.5630749392166443   T   T   T
  6.7115185250499776  9.7020974876953279 22.9823586050122692   F   F   F
  6.6740852549417449  4.5193531199666586 28.5329700629415761   T   T   T
  2.8410958006086870  9.6740087268934012 23.0377597114206090   F   F   F
  4.7864848325296352  6.2688415516210982 21.7473448296483944   F   F   F
  0.9682371470319696  1.1104223908751294 27.3317337948209129   T   T   T
  0.9496792357603202  6.3038271114452211 21.7589276371893163   F   F   F
  4.7688764501731429  1.1481802076040426 27.3309740619811805   T   T   T
  2.8483041943210745  4.0663060506309883 24.3238147189661902   F   F   F
  6.6656987077464285  9.2338798517570329 18.7461756046097285   F   F   F
  6.6851097910903885  4.0313204908068672 24.3122319114252647   F   F   F
  2.8668879649635168  9.1988942919329126 18.7540642075059338   F   F   F
 12.4102831057528675  4.6778164256912049 26.4307348560094297   F   F   F
  8.5920612796259928  9.8453902268172495 20.8725671520900917   F   F   F
  8.5914963059600762  4.7571285034181008 26.4647707048082417   F   F   F
 12.4088908193854301  9.9247023045441463 20.8871315904517800   F   F   F
 10.4957386002022943  5.6573311765608816 19.6014818717309041   F   F   F
 14.3139604263291638  0.4897573754348375 25.1596495756502421   F   F   F
 14.3145253999950874  5.5780190988339848 19.5674460229320886   F   F   F
 10.4971308865697317  0.4104452977079412 25.1450851372885502   F   F   F
 12.4271727761502682  3.5442309270225940 18.8598003636795788   F   F   F
  8.6089509500233969  8.7118047281486390 27.6082421040921204   F   F   F
  8.5705887453248391  3.5726841051289751 18.8647759050450681   F   F   F
 12.3879832587501930  8.7402579062550210 27.5937462350204825   F   F   F
 10.4788489298048955  6.7909166752294947 27.1724163640607514   F   F   F
 14.2970707559317667  1.6233428741034488 18.4239746236482063   F   F   F
 14.3354329606303246  6.7624634971231119 27.1674408226952657   F   F   F
 10.5180384472049688  1.5948896959970684 18.4384704927198477   F   F   F
 12.4164390664007804  7.6184578347759491 19.3820579880894854   F   F   F
  8.5990445529754247  2.4508840336499054 24.9596971024459506   F   F   F
  8.5739637992412305  7.6138100155477382 19.3745149817996811   F   F   F
 12.3921856253681035  2.4462362144216945 24.9326826857190156   F   F   F
 10.4954196471110759  2.7017250372774386 26.6256082406528520   T   T   T
 14.3069771529797389  7.8842635686021829 21.0725196252943832   F   F   F
 14.3317947412896736  2.7271839344514865 26.6448999310580987   T   T   T
 10.5138360805870601  7.8889113878303929 21.0995340420213182   F   F   F
  8.6032123773411939  6.4318493013111979 28.9955608025087912   T   T   T
 12.4034858115006994  1.1617391641974739 20.2121327734602616   F   F   F
 14.3207577205813337  4.0058346369285669 17.0716422138675270   F   F   F
 10.5025358944544625  9.1734084380546115 25.8200839542800757   F   F   F
 12.3545269081086353  2.1349235338092960 16.6889550735368424   F   F   F
  8.5363050819817659  7.3024973349353406 25.4373968139493840   F   F   F
  8.6283591325413873  2.0932103096534900 16.7725591252325934   F   F   F
 12.4457536459667413  7.2607841107795350 25.5015294552080078   F   F   F
 10.5811459320486634  8.2178709680933615 29.3774049090919647   T   T   T
 14.3697166239733924  3.0326502673167459 20.5948199137909498   F   F   F
 14.2900963737007736  8.2476455841370377 29.2779356837560911   T   T   T
 10.4602680599884206  3.0743634914725524 20.5306872725323259   F   F   F
 12.3762813547783139  5.8006239156828023 17.4916904188087194   F   F   F
  8.5588868413529600  0.6330501145567591 23.0693295331651846   F   F   F
  8.6110877396673775  5.8287126764847281 17.4557607228375140   F   F   F
 12.4293095657942487  0.6611388753586840 23.0139284267568520   F   F   F
 10.5216655007994504  4.5138555291529165 28.5186596456452612   T   T   T
 14.3471348646022037  9.7020974876953279 22.9628871945751420   F   F   F
 14.3010726824391110  4.5274618018675801 28.5502242708648275   T   T   T
 10.4767121401609131  9.6740087268934012 23.0182883009834818   F   F   F
 12.4221011720818613  6.2688415516210982 21.7278734192112672   F   F   F
  8.5959446044509171  1.0985093302261077 27.3065205364396490   T   T   T
  8.5852955753125464  6.3038271114452211 21.7394562267521891   F   F   F
 12.4137944110339919  1.1419374506248519 27.3120985461716757   T   T   T
 10.4839205338733006  4.0663060506309883 24.3043433085290630   F   F   F
 14.3013150472986545  9.2338798517570329 18.7267041941726013   F   F   F
 14.3207261306426155  4.0313204908068672 24.2927605009881376   F   F   F
 10.5025043045157425  9.1988942919329126 18.7345927970688066   F   F   F
  8.0011800615367275  5.5193810633746692 31.1700776825881576   T   T   T
  8.6615543768454835  6.1812765342461660 30.8867385120783524   T   T   T
