Ag Hg Pd O                              
   1.00000000000000     
     9.3252902844487018    0.0000000000000000    0.0000000000000006
    -0.0000000000000008   13.1879519933334119    0.0000000000000008
     0.0000000000000000    0.0000000000000000   37.3011611377948071
   Ag   Hg   Pd   O 
    16    16    32     1
Selective dynamics
Direct
  0.0000000000000000  0.0000000000000000  0.4687500000000000   F   F   F
  0.9998442600345925  0.0001450614203762  0.5954630848482338   T   T   T
  0.2500000000000000  0.2500000000000000  0.4062500000000000   F   F   F
  0.2500000000000000  0.2500000000000000  0.5312500000000000   F   F   F
  0.9989398885285965  0.2526169621026000  0.5968861007807718   T   T   T
  0.0000000000000000  0.2500000000000000  0.4687500000000000   F   F   F
  0.2500000000000000  0.0000000000000000  0.4062500000000000   F   F   F
  0.2500000000000000  0.0000000000000000  0.5312500000000000   F   F   F
  0.0000000000000000  0.3750000000000000  0.4062500000000000   F   F   F
  0.0000000000000000  0.3750000000000000  0.5312500000000000   F   F   F
  0.2482871133101057  0.3745478098764750  0.5911680242578896   T   T   T
  0.2500000000000000  0.3750000000000000  0.4687500000000000   F   F   F
  0.2459554693341133  0.1266167736908059  0.5909694928300837   T   T   T
  0.2500000000000000  0.1250000000000000  0.4687500000000000   F   F   F
  0.0000000000000000  0.1250000000000000  0.4062500000000000   F   F   F
  0.0000000000000000  0.1250000000000000  0.5312500000000000   F   F   F
  0.0000000000000000  0.5000000000000000  0.4687500000000000   F   F   F
  0.9985649624716331  0.4999070033583379  0.5949131821543219   T   T   T
  0.2500000000000000  0.7500000000000000  0.4062500000000000   F   F   F
  0.2500000000000000  0.7500000000000000  0.5312500000000000   F   F   F
  0.9975990979993625  0.7482089806317731  0.5969206675360965   T   T   T
  0.0000000000000000  0.7500000000000000  0.4687500000000000   F   F   F
  0.2500000000000000  0.5000000000000000  0.4062500000000000   F   F   F
  0.2500000000000000  0.5000000000000000  0.5312500000000000   F   F   F
  0.0000000000000000  0.8750000000000000  0.4062500000000000   F   F   F
  0.0000000000000000  0.8750000000000000  0.5312500000000000   F   F   F
  0.2461809735180367  0.8727001093664768  0.5909363585988601   T   T   T
  0.2500000000000000  0.8750000000000000  0.4687500000000000   F   F   F
  0.2470550933895623  0.6261276725693179  0.5911390961729239   T   T   T
  0.2500000000000000  0.6250000000000000  0.4687500000000000   F   F   F
  0.0000000000000000  0.6250000000000000  0.4062500000000000   F   F   F
  0.0000000000000000  0.6250000000000000  0.5312500000000000   F   F   F
  0.5000000000000000  0.0000000000000000  0.4687500000000000   F   F   F
  0.4903365558884616  0.0000923524181502  0.5971794899664218   T   T   T
  0.7500000000000000  0.2500000000000000  0.4062500000000000   F   F   F
  0.7500000000000000  0.2500000000000000  0.5312500000000000   F   F   F
  0.4957331186180483  0.2523092330191758  0.5967358967167016   T   T   T
  0.5000000000000000  0.2500000000000000  0.4687500000000000   F   F   F
  0.7500000000000000  0.0000000000000000  0.4062500000000000   F   F   F
  0.7500000000000000  0.0000000000000000  0.5312500000000000   F   F   F
  0.5000000000000000  0.3750000000000000  0.4062500000000000   F   F   F
  0.5000000000000000  0.3750000000000000  0.5312500000000000   F   F   F
  0.7479268608819325  0.3741825797043461  0.5907622870745257   T   T   T
  0.7500000000000000  0.3750000000000000  0.4687500000000000   F   F   F
  0.7482909753920453  0.1283642524913020  0.5921653573323908   T   T   T
  0.7500000000000000  0.1250000000000000  0.4687500000000000   F   F   F
  0.5000000000000000  0.1250000000000000  0.4062500000000000   F   F   F
  0.5000000000000000  0.1250000000000000  0.5312500000000000   F   F   F
  0.5000000000000000  0.5000000000000000  0.4687500000000000   F   F   F
  0.4977078037691953  0.4997516953384178  0.5948130194818972   T   T   T
  0.7500000000000000  0.7500000000000000  0.4062500000000000   F   F   F
  0.7500000000000000  0.7500000000000000  0.5312500000000000   F   F   F
  0.4960767657953724  0.7478096945593862  0.5968437093698142   T   T   T
  0.5000000000000000  0.7500000000000000  0.4687500000000000   F   F   F
  0.7500000000000000  0.5000000000000000  0.4062500000000000   F   F   F
  0.7500000000000000  0.5000000000000000  0.5312500000000000   F   F   F
  0.5000000000000000  0.8750000000000000  0.4062500000000000   F   F   F
  0.5000000000000000  0.8750000000000000  0.5312500000000000   F   F   F
  0.7482005252584614  0.8727293703776198  0.5926171255614108   T   T   T
  0.7500000000000000  0.8750000000000000  0.4687500000000000   F   F   F
  0.7478543103414239  0.6254866794446201  0.5907447883058907   T   T   T
  0.7500000000000000  0.6250000000000000  0.4687500000000000   F   F   F
  0.5000000000000000  0.6250000000000000  0.4062500000000000   F   F   F
  0.5000000000000000  0.6250000000000000  0.5312500000000000   F   F   F
  0.7163890426343755  0.0009338989764487  0.6230772324495462   T   T   T
 
  0.00000000E+00  0.00000000E+00  0.00000000E+00
  0.00000000E+00  0.00000000E+00  0.00000000E+00
  0.00000000E+00  0.00000000E+00  0.00000000E+00
  0.00000000E+00  0.00000000E+00  0.00000000E+00
  0.00000000E+00  0.00000000E+00  0.00000000E+00
  0.00000000E+00  0.00000000E+00  0.00000000E+00
  0.00000000E+00  0.00000000E+00  0.00000000E+00
  0.00000000E+00  0.00000000E+00  0.00000000E+00
  0.00000000E+00  0.00000000E+00  0.00000000E+00
  0.00000000E+00  0.00000000E+00  0.00000000E+00
  0.00000000E+00  0.00000000E+00  0.00000000E+00
  0.00000000E+00  0.00000000E+00  0.00000000E+00
  0.00000000E+00  0.00000000E+00  0.00000000E+00
  0.00000000E+00  0.00000000E+00  0.00000000E+00
  0.00000000E+00  0.00000000E+00  0.00000000E+00
  0.00000000E+00  0.00000000E+00  0.00000000E+00
  0.00000000E+00  0.00000000E+00  0.00000000E+00
  0.00000000E+00  0.00000000E+00  0.00000000E+00
  0.00000000E+00  0.00000000E+00  0.00000000E+00
  0.00000000E+00  0.00000000E+00  0.00000000E+00
  0.00000000E+00  0.00000000E+00  0.00000000E+00
  0.00000000E+00  0.00000000E+00  0.00000000E+00
  0.00000000E+00  0.00000000E+00  0.00000000E+00
  0.00000000E+00  0.00000000E+00  0.00000000E+00
  0.00000000E+00  0.00000000E+00  0.00000000E+00
  0.00000000E+00  0.00000000E+00  0.00000000E+00
  0.00000000E+00  0.00000000E+00  0.00000000E+00
  0.00000000E+00  0.00000000E+00  0.00000000E+00
  0.00000000E+00  0.00000000E+00  0.00000000E+00
  0.00000000E+00  0.00000000E+00  0.00000000E+00
  0.00000000E+00  0.00000000E+00  0.00000000E+00
  0.00000000E+00  0.00000000E+00  0.00000000E+00
  0.00000000E+00  0.00000000E+00  0.00000000E+00
  0.00000000E+00  0.00000000E+00  0.00000000E+00
  0.00000000E+00  0.00000000E+00  0.00000000E+00
  0.00000000E+00  0.00000000E+00  0.00000000E+00
  0.00000000E+00  0.00000000E+00  0.00000000E+00
  0.00000000E+00  0.00000000E+00  0.00000000E+00
  0.00000000E+00  0.00000000E+00  0.00000000E+00
  0.00000000E+00  0.00000000E+00  0.00000000E+00
  0.00000000E+00  0.00000000E+00  0.00000000E+00
  0.00000000E+00  0.00000000E+00  0.00000000E+00
  0.00000000E+00  0.00000000E+00  0.00000000E+00
  0.00000000E+00  0.00000000E+00  0.00000000E+00
  0.00000000E+00  0.00000000E+00  0.00000000E+00
  0.00000000E+00  0.00000000E+00  0.00000000E+00
  0.00000000E+00  0.00000000E+00  0.00000000E+00
  0.00000000E+00  0.00000000E+00  0.00000000E+00
  0.00000000E+00  0.00000000E+00  0.00000000E+00
  0.00000000E+00  0.00000000E+00  0.00000000E+00
  0.00000000E+00  0.00000000E+00  0.00000000E+00
  0.00000000E+00  0.00000000E+00  0.00000000E+00
  0.00000000E+00  0.00000000E+00  0.00000000E+00
  0.00000000E+00  0.00000000E+00  0.00000000E+00
  0.00000000E+00  0.00000000E+00  0.00000000E+00
  0.00000000E+00  0.00000000E+00  0.00000000E+00
  0.00000000E+00  0.00000000E+00  0.00000000E+00
  0.00000000E+00  0.00000000E+00  0.00000000E+00
  0.00000000E+00  0.00000000E+00  0.00000000E+00
  0.00000000E+00  0.00000000E+00  0.00000000E+00
  0.00000000E+00  0.00000000E+00  0.00000000E+00
  0.00000000E+00  0.00000000E+00  0.00000000E+00
  0.00000000E+00  0.00000000E+00  0.00000000E+00
  0.00000000E+00  0.00000000E+00  0.00000000E+00
  0.00000000E+00  0.00000000E+00  0.00000000E+00
