Ag Hg Pd O
 1.0000000000000000
     9.3252902844487018    0.0000000000000000    0.0000000000000006
    -0.0000000000000008   13.1879519933334119    0.0000000000000008
     0.0000000000000000    0.0000000000000000   37.3011611377948071
Ag Hg Pd O
16 16 32 1
Selective dynamics
Cartesian
  0.0000000000000000  0.0000000000000000 17.4849192833413163   F   F   F
 -0.0014523203863064  0.0019130630480504 22.2114644795324558   T   T   T
  2.3313225711121763  3.2969879983333530 15.1535967122291400   F   F   F
  2.3313225711121763  3.2969879983333530 19.8162418544534908   F   F   F
 -0.0098858472047143  3.3315003689107843 22.2645446261335884   T   T   T
 -0.0000000000000002  3.2969879983333530 17.4849192833413163   F   F   F
  2.3313225711121763  0.0000000000000000 15.1535967122291400   F   F   F
  2.3313225711121763  0.0000000000000000 19.8162418544534908   F   F   F
 -0.0000000000000003  4.9454819975000293 15.1535967122291400   F   F   F
 -0.0000000000000003  4.9454819975000293 19.8162418544534908   F   F   F
  2.3153494055045254  4.9395185358590981 22.0512537323552671   T   T   T
  2.3313225711121750  4.9454819975000293 17.4849192833413163   F   F   F
  2.2936061485884012  1.6698159329850755 22.0438482795757729   T   T   T
  2.3313225711121754  1.6484939991666780 17.4849192833413163   F   F   F
 -0.0000000000000001  1.6484939991666758 15.1535967122291400   F   F   F
 -0.0000000000000001  1.6484939991666772 19.8162418544534908   F   F   F
 -0.0000000000000004  6.5939759966667060 17.4849192833413163   F   F   F
 -0.0133821415211064  6.5927495614208800 22.1909524705365904   T   T   T
  2.3313225711121759  9.8909639950000585 15.1535967122291400   F   F   F
  2.3313225711121759  9.8909639950000585 19.8162418544534908   F   F   F
 -0.0223891081004701  9.8673441175527135 22.2658340062439812   T   T   T
 -0.0000000000000006  9.8909639950000585 17.4849192833413163   F   F   F
  2.3313225711121759  6.5939759966667060 15.1535967122291400   F   F   F
  2.3313225711121759  6.5939759966667060 19.8162418544534908   F   F   F
 -0.0000000000000007 11.5394579941667352 15.1535967122291400   F   F   F
 -0.0000000000000007 11.5394579941667352 19.8162418544534908   F   F   F
  2.2957090405638829 11.5091271469018857 22.0426123342777238   T   T   T
  2.3313225711121746 11.5394579941667352 17.4849192833413163   F   F   F
  2.3038604621092187  8.2573416875417038 22.0501746811965269   T   T   T
  2.3313225711121750  8.2424699958333836 17.4849192833413163   F   F   F
 -0.0000000000000005  8.2424699958333818 15.1535967122291400   F   F   F
 -0.0000000000000005  8.2424699958333836 19.8162418544534908   F   F   F
  4.6626451422243509  0.0000000000000000 17.4849192833413163   F   F   F
  4.5725307207366814  0.0012179392570033 22.2754883834236672   T   T   T
  6.9939677133365272  3.2969879983333530 15.1535967122291400   F   F   F
  6.9939677133365272  3.2969879983333530 19.8162418544534908   F   F   F
  4.6228552347283358  3.3274420525316972 22.2589418401362629   T   T   T
  4.6626451422243509  3.2969879983333530 17.4849192833413163   F   F   F
  6.9939677133365272  0.0000000000000000 15.1535967122291400   F   F   F
  6.9939677133365272  0.0000000000000000 19.8162418544534908   F   F   F
  4.6626451422243509  4.9454819975000293 15.1535967122291400   F   F   F
  4.6626451422243509  4.9454819975000293 19.8162418544534908   F   F   F
  6.9746350892605093  4.9347018978825519 22.0361192642990638   T   T   T
  6.9939677133365254  4.9454819975000293 17.4849192833413163   F   F   F
  6.9780305627640971  1.6928615995154546 22.0884554140753018   T   T   T
  6.9939677133365263  1.6484939991666780 17.4849192833413163   F   F   F
  4.6626451422243509  1.6484939991666758 15.1535967122291400   F   F   F
  4.6626451422243509  1.6484939991666772 19.8162418544534908   F   F   F
  4.6626451422243509  6.5939759966667060 17.4849192833413163   F   F   F
  4.6412697469831574  6.5907013667100562 22.1872162865525162   T   T   T
  6.9939677133365272  9.8909639950000585 15.1535967122291400   F   F   F
  6.9939677133365272  9.8909639950000585 19.8162418544534908   F   F   F
  4.6260598444122980  9.8620783519985000 22.2629633772826629   T   T   T
  4.6626451422243509  9.8909639950000585 17.4849192833413163   F   F   F
  6.9939677133365272  6.5939759966667060 15.1535967122291400   F   F   F
  6.9939677133365272  6.5939759966667060 19.8162418544534908   F   F   F
  4.6626451422243509 11.5394579941667352 15.1535967122291400   F   F   F
  4.6626451422243509 11.5394579941667352 19.8162418544534908   F   F   F
  6.9771870890121406 11.5095130397121856 22.1053068935830517   T   T   T
  6.9939677133365254 11.5394579941667352 17.4849192833413163   F   F   F
  6.9739585344099666  8.2488883009851648 22.0354665399104626   T   T   T
  6.9939677133365263  8.2424699958333836 17.4849192833413163   F   F   F
  4.6626451422243509  8.2424699958333818 15.1535967122291400   F   F   F
  4.6626451422243509  8.2424699958333836 19.8162418544534908   F   F   F
  6.6805357791638427  0.0123162148680103 23.2415042488917543   T   T   T
