Te Au                                   
   1.00000000000000     
     8.0812559169438369    0.0000000000000000   -2.6885252545588312
     2.6833086782632822   12.0561576738267870   -5.4241366942120299
     0.0000000000000000    0.0000000000000000   40.4691373736655891
   Te   Au
    32    16
Selective dynamics
Direct
  0.4275467674999973  0.4057865658333313  0.3786267002777777   F   F   F
  0.1775467674999973  0.1557865658333313  0.4619600336111134   F   F   F
  0.0724532325000027  0.0942134341666687  0.3713732997222223   F   F   F
  0.3224532325000027  0.3442134341666687  0.4547066330555580   F   F   F
  0.0000000000000000  0.0000000000000000  0.4583333333333357   F   F   F
  0.2500000000000000  0.2500000000000000  0.3750000000000000   F   F   F
  0.4275467674999973  0.4057865658333313  0.5452933669444420   F   F   F
  0.1909559754980066  0.1433775224121305  0.6334448250571469   T   T   T
  0.0724532325000027  0.0942134341666687  0.5380399663888866   F   F   F
  0.3177467647710515  0.3561716650800193  0.6223293441526181   T   T   T
  0.0032019708122064  0.0018550495758092  0.6277336092924770   T   T   T
  0.2500000000000000  0.2500000000000000  0.5416666666666643   F   F   F
  0.4275467674999973  0.9057865658333313  0.3786267002777777   F   F   F
  0.1775467674999973  0.6557865658333313  0.4619600336111134   F   F   F
  0.0724532325000027  0.5942134341666687  0.3713732997222223   F   F   F
  0.3224532325000027  0.8442134341666687  0.4547066330555580   F   F   F
  0.0000000000000000  0.5000000000000000  0.4583333333333357   F   F   F
  0.2500000000000000  0.7500000000000000  0.3750000000000000   F   F   F
  0.4275467674999973  0.9057865658333313  0.5452933669444420   F   F   F
  0.1909670523490519  0.6433906663131808  0.6334203379376149   T   T   T
  0.0724532325000027  0.5942134341666687  0.5380399663888866   F   F   F
  0.3176420542561900  0.8562379770538797  0.6223501280805053   T   T   T
  0.0031497242964278  0.5017841667429295  0.6276704093815724   T   T   T
  0.2500000000000000  0.7500000000000000  0.5416666666666643   F   F   F
  0.9275467674999973  0.4057865658333313  0.3786267002777777   F   F   F
  0.6775467674999973  0.1557865658333313  0.4619600336111134   F   F   F
  0.5724532325000027  0.0942134341666687  0.3713732997222223   F   F   F
  0.8224532325000027  0.3442134341666687  0.4547066330555580   F   F   F
  0.5000000000000000  0.0000000000000000  0.4583333333333357   F   F   F
  0.7500000000000000  0.2500000000000000  0.3750000000000000   F   F   F
  0.9275467674999973  0.4057865658333313  0.5452933669444420   F   F   F
  0.6910589200976958  0.1433369697626645  0.6333539029805593   T   T   T
  0.5724532325000027  0.0942134341666687  0.5380399663888866   F   F   F
  0.8178610460174056  0.3561879601971754  0.6222474911194382   T   T   T
  0.5029947336336065  0.0017374354281685  0.6276103904761499   T   T   T
  0.7500000000000000  0.2500000000000000  0.5416666666666643   F   F   F
  0.9275467674999973  0.9057865658333313  0.3786267002777777   F   F   F
  0.6775467674999973  0.6557865658333313  0.4619600336111134   F   F   F
  0.5724532325000027  0.5942134341666687  0.3713732997222223   F   F   F
  0.8224532325000027  0.8442134341666687  0.4547066330555580   F   F   F
  0.5000000000000000  0.5000000000000000  0.4583333333333357   F   F   F
  0.7500000000000000  0.7500000000000000  0.3750000000000000   F   F   F
  0.9275467674999973  0.9057865658333313  0.5452933669444420   F   F   F
  0.6910450952806215  0.6432885577719603  0.6333147451670555   T   T   T
  0.5724532325000027  0.5942134341666687  0.5380399663888866   F   F   F
  0.8177683650627614  0.8564329806807933  0.6222917186696222   T   T   T
  0.5030226631812127  0.5017000946495216  0.6275673921994596   T   T   T
  0.7500000000000000  0.7500000000000000  0.5416666666666643   F   F   F
 
  0.00000000E+00  0.00000000E+00  0.00000000E+00
  0.00000000E+00  0.00000000E+00  0.00000000E+00
  0.00000000E+00  0.00000000E+00  0.00000000E+00
  0.00000000E+00  0.00000000E+00  0.00000000E+00
  0.00000000E+00  0.00000000E+00  0.00000000E+00
  0.00000000E+00  0.00000000E+00  0.00000000E+00
  0.00000000E+00  0.00000000E+00  0.00000000E+00
  0.00000000E+00  0.00000000E+00  0.00000000E+00
  0.00000000E+00  0.00000000E+00  0.00000000E+00
  0.00000000E+00  0.00000000E+00  0.00000000E+00
  0.00000000E+00  0.00000000E+00  0.00000000E+00
  0.00000000E+00  0.00000000E+00  0.00000000E+00
  0.00000000E+00  0.00000000E+00  0.00000000E+00
  0.00000000E+00  0.00000000E+00  0.00000000E+00
  0.00000000E+00  0.00000000E+00  0.00000000E+00
  0.00000000E+00  0.00000000E+00  0.00000000E+00
  0.00000000E+00  0.00000000E+00  0.00000000E+00
  0.00000000E+00  0.00000000E+00  0.00000000E+00
  0.00000000E+00  0.00000000E+00  0.00000000E+00
  0.00000000E+00  0.00000000E+00  0.00000000E+00
  0.00000000E+00  0.00000000E+00  0.00000000E+00
  0.00000000E+00  0.00000000E+00  0.00000000E+00
  0.00000000E+00  0.00000000E+00  0.00000000E+00
  0.00000000E+00  0.00000000E+00  0.00000000E+00
  0.00000000E+00  0.00000000E+00  0.00000000E+00
  0.00000000E+00  0.00000000E+00  0.00000000E+00
  0.00000000E+00  0.00000000E+00  0.00000000E+00
  0.00000000E+00  0.00000000E+00  0.00000000E+00
  0.00000000E+00  0.00000000E+00  0.00000000E+00
  0.00000000E+00  0.00000000E+00  0.00000000E+00
  0.00000000E+00  0.00000000E+00  0.00000000E+00
  0.00000000E+00  0.00000000E+00  0.00000000E+00
  0.00000000E+00  0.00000000E+00  0.00000000E+00
  0.00000000E+00  0.00000000E+00  0.00000000E+00
  0.00000000E+00  0.00000000E+00  0.00000000E+00
  0.00000000E+00  0.00000000E+00  0.00000000E+00
  0.00000000E+00  0.00000000E+00  0.00000000E+00
  0.00000000E+00  0.00000000E+00  0.00000000E+00
  0.00000000E+00  0.00000000E+00  0.00000000E+00
  0.00000000E+00  0.00000000E+00  0.00000000E+00
  0.00000000E+00  0.00000000E+00  0.00000000E+00
  0.00000000E+00  0.00000000E+00  0.00000000E+00
  0.00000000E+00  0.00000000E+00  0.00000000E+00
  0.00000000E+00  0.00000000E+00  0.00000000E+00
  0.00000000E+00  0.00000000E+00  0.00000000E+00
  0.00000000E+00  0.00000000E+00  0.00000000E+00
  0.00000000E+00  0.00000000E+00  0.00000000E+00
  0.00000000E+00  0.00000000E+00  0.00000000E+00
