Te Au
 1.0000000000000000
     8.0812559169438369    0.0000000000000000   -2.6885252545588312
     2.6833086782632822   12.0561576738267870   -5.4241366942120299
     0.0000000000000000    0.0000000000000000   40.4691373736655891
Te Au
32 16
Selective dynamics
Cartesian
  4.5439654582528242  4.8922268196073597 11.9721838631954878   F   F   F
  1.8528243094510446  1.8781874011506636 17.3727774648603344   F   F   F
  0.8383168393507353  1.1358520173060340 14.3233381926682792   F   F   F
  3.5294579881525152  4.1498914357627301 15.6676008199476957   F   F   F
  0.0000000000000000  0.0000000000000000 18.5483546295967301   F   F   F
  2.6911411488017793  3.0140394184566968 13.1477610279318817   F   F   F
  4.5439654582528242  4.8922268196073597 18.7170400921397473   F   F   F
  1.9278902570253751  1.7285820170832642 24.3438764007991253   T   T   T
  0.8383168393507353  1.1358520173060340 21.0681944216125387   F   F   F
  3.5235114427565151  4.2940617531541294 22.3989377205351801   T   T   T
  0.0308536161974189  0.0223647701786831 25.3851670466574504   T   T   T
  2.6911411488017793  3.0140394184566968 19.8926172568761466   F   F   F
  5.8856197973844653 10.9203056565207532  9.2601155160894724   F   F   F
  3.1944786485826855  7.9062662380640569 14.6607091177543190   F   F   F
  2.1799711784823765  7.1639308542194273 11.6112698455622638   F   F   F
  4.8711123272841563 10.1779702726761236 12.9555324728416803   F   F   F
  1.3416543391316411  6.0280788369133935 15.8362862824907147   F   F   F
  4.0327954879334200  9.0421182553700898 10.4356926808258663   F   F   F
  5.8856197973844653 10.9203056565207532 16.0049717450337319   F   F   F
  3.2696693801688754  7.7568193189401820 21.6307160063789503   T   T   T
  2.1799711784823765  7.1639308542194273 18.3561260745065233   F   F   F
  4.8644975249152980 10.3229400576800465 19.6876323127149426   T   T   T
  1.3718955373436659  6.0495890324825288 22.6710659979268776   T   T   T
  4.0327954879334200  9.0421182553700898 17.1805489097701312   F   F   F
  8.5845934167247435  4.8922268196073597 10.6279212359160731   F   F   F
  5.8934522679229628  1.8781874011506636 16.0285148375809179   F   F   F
  4.8789447978226539  1.1358520173060340 12.9790755653888645   F   F   F
  7.5700859466244337  4.1498914357627301 14.3233381926682810   F   F   F
  4.0406279584719185  0.0000000000000000 17.2040920023173136   F   F   F
  6.7317691072736974  3.0140394184566968 11.8034984006524653   F   F   F
  8.5845934167247435  4.8922268196073597 17.3727774648603308   F   F   F
  5.9692413218764484  1.7280931079472259 22.9958774294700241   T   T   T
  4.8789447978226539  1.1358520173060340 19.7239317943331223   F   F   F
  7.5651066620559986  4.2942582096558555 21.0509669366515020   T   T   T
  4.0694912429304848  0.0209467954700813 24.0371129777755179   T   T   T
  6.7317691072736974  3.0140394184566968 18.5483546295967301   F   F   F
  9.9262477558563837 10.9203056565207532  7.9158528888100577   F   F   F
  7.2351066070546040  7.9062662380640569 13.3164464904749043   F   F   F
  6.2205991369542950  7.1639308542194273 10.2670072182828491   F   F   F
  8.9117402857560748 10.1779702726761236 11.6112698455622656   F   F   F
  5.3822822976035596  6.0280788369133935 14.4920236552113000   F   F   F
  8.0734234464053394  9.0421182553700898  9.0914300535464516   F   F   F
  9.9262477558563837 10.9203056565207532 14.6607091177543172   F   F   F
  7.3106540348085218  7.7555882822673476 20.2825241610550293   T   T   T
  6.2205991369542950  7.1639308542194273 17.0118634472271069   F   F   F
  8.9066694882645763 10.3252910521531369 18.3396085908408608   T   T   T
  5.4112710910485831  6.0485754460684822 21.3234319796968279   T   T   T
  8.0734234464053394  9.0421182553700898 15.8362862824907165   F   F   F
