Ag P Pd O
 1.0000000000000000
    11.9853458100000001    0.0000000000000000    0.0000000000000007
    -0.0000000000000007   11.9853458100000001    0.0000000000000007
     0.0000000000000000    0.0000000000000000   28.2068709599999998
Ag P Pd O
9 9 45 1
Selective dynamics
Cartesian
  2.0499334468470138  2.0326647987796846 16.5092221066263960   T   T   T
  0.0000000000000000  0.0000000000000000 12.9773321901504151   F   F   F
  0.0553735382272862  0.0055857427068986 16.4261742788915512   T   T   T
  1.9975576349999999  0.0000000000000000 14.3843619949500372   F   F   F
 -0.0000000000000001  1.9975576349999999 14.3843619949500372   F   F   F
  1.9975576349999999  0.0000000000000000 11.5703023853507947   F   F   F
 -0.0000000000000001  1.9975576349999999 11.5703023853507947   F   F   F
  1.8185178628075178  6.0012761359118310 16.5430896544660868   T   T   T
 -0.0000000000000002  3.9951152699999999 12.9773321901504151   F   F   F
 -0.0386195534993024  3.9498453492619352 16.4176004370058877   T   T   T
  1.9975576349999997  3.9951152699999999 14.3843619949500372   F   F   F
 -0.0000000000000004  5.9926729050000000 14.3843619949500372   F   F   F
  1.9975576349999997  3.9951152699999999 11.5703023853507947   F   F   F
 -0.0000000000000004  5.9926729050000000 11.5703023853507947   F   F   F
  2.0387165833956042  9.9531299648880438 16.5070591675608398   T   T   T
 -0.0000000000000005  7.9902305399999998 12.9773321901504151   F   F   F
 -0.0558262403692429  8.0429566671963642 16.4192121114650149   T   T   T
  1.9975576349999995  7.9902305399999998 14.3843619949500372   F   F   F
 -0.0000000000000006  9.9877881750000004 14.3843619949500372   F   F   F
  1.9975576349999995  7.9902305399999998 11.5703023853507947   F   F   F
 -0.0000000000000006  9.9877881750000004 11.5703023853507947   F   F   F
  5.9405102582328979  2.0327070028826952 16.5105554094027980   T   T   T
  3.9951152699999999  0.0000000000000000 12.9773321901504151   F   F   F
  3.9934958644430059 -0.0040093936131598 16.4172579471817812   T   T   T
  5.9926729050000000  0.0000000000000000 14.3843619949500372   F   F   F
  3.9951152699999999  1.9975576349999999 14.3843619949500372   F   F   F
  5.9926729050000000  0.0000000000000000 11.5703023853507947   F   F   F
  3.9951152699999999  1.9975576349999999 11.5703023853507947   F   F   F
  6.1710924082523704  6.0012232914784187 16.5471759962823057   T   T   T
  3.9951152699999994  3.9951152699999999 12.9773321901504151   F   F   F
  3.9954734892221069  4.1275643224275456 16.4910103411685434   T   T   T
  5.9926729049999992  3.9951152699999999 14.3843619949500372   F   F   F
  3.9951152699999994  5.9926729050000000 14.3843619949500372   F   F   F
  5.9926729049999992  3.9951152699999999 11.5703023853507947   F   F   F
  3.9951152699999994  5.9926729050000000 11.5703023853507947   F   F   F
  5.9541041161953032  9.9566992491601329 16.5075893834767271   T   T   T
  3.9951152699999994  7.9902305399999998 12.9773321901504151   F   F   F
  3.9954426577537134  7.8700567667373491 16.5004772280556722   T   T   T
  5.9926729049999992  7.9902305399999998 14.3843619949500372   F   F   F
  3.9951152699999994  9.9877881750000004 14.3843619949500372   F   F   F
  5.9926729049999992  7.9902305399999998 11.5703023853507947   F   F   F
  3.9951152699999994  9.9877881750000004 11.5703023853507947   F   F   F
  9.9864718743160736  1.9477462317615635 16.5199248720403489   T   T   T
  7.9902305399999998  0.0000000000000000 12.9773321901504151   F   F   F
  7.9384377196410307  0.0082184814200446 16.4256002624427424   T   T   T
  9.9877881750000004  0.0000000000000000 14.3843619949500372   F   F   F
  7.9902305399999998  1.9975576349999999 14.3843619949500372   F   F   F
  9.9877881750000004  0.0000000000000000 11.5703023853507947   F   F   F
  7.9902305399999998  1.9975576349999999 11.5703023853507947   F   F   F
  9.9871822917381294  5.9894849362332758 16.5160734762869765   T   T   T
  7.9902305399999998  3.9951152699999999 12.9773321901504151   F   F   F
  8.0327915855931735  3.9480128087875106 16.4161985265203043   T   T   T
  9.9877881750000004  3.9951152699999999 14.3843619949500372   F   F   F
  7.9902305399999998  5.9926729050000000 14.3843619949500372   F   F   F
  9.9877881750000004  3.9951152699999999 11.5703023853507947   F   F   F
  7.9902305399999998  5.9926729050000000 11.5703023853507947   F   F   F
  9.9864421590383259 10.0606322319237140 16.5204808356320996   T   T   T
  7.9902305399999989  7.9902305399999998 12.9773321901504168   F   F   F
  8.0493912234568654  8.0459452817130170 16.4183771000792262   T   T   T
  9.9877881749999986  7.9902305399999998 14.3843619949500390   F   F   F
  7.9902305399999989  9.9877881750000004 14.3843619949500390   F   F   F
  9.9877881749999986  7.9902305399999998 11.5703023853507965   F   F   F
  7.9902305399999989  9.9877881750000004 11.5703023853507965   F   F   F
  4.0025384877702654  5.9917976156823185 17.4277924130682251   T   T   T
