Bi Te Pb H O                            
   1.00000000000000     
     9.3555735572755179    0.0000000000000000    0.0000000000000006
    -4.6777867786377580    8.1021643675745487    0.0000000000000006
     0.0000000000000000    0.0000000000000000   51.9786549458288150
   Bi   Te   Pb   H    O 
    12    20     4     1     1
Selective dynamics
Direct
  0.1666666666666643  0.3333333333333357  0.4631075900761132   F   F   F
  0.0000000000000000  0.0000000000000000  0.3878002867427810   F   F   F
  0.3333333333333357  0.1666666666666643  0.5370628400761106   F   F   F
  0.0000000000000000  0.0000000000000000  0.4989287634094453   F   F   F
  0.3333333333333357  0.1666666666666643  0.4297143634094454   F   F   F
  0.3199281747477443  0.1771704119799935  0.6527397982418819   T   T   T
  0.1666666666666643  0.3333333333333357  0.5683119667427761   F   F   F
  0.1666666666666643  0.3333333333333357  0.3576580600761119   F   F   F
  0.9893500896585010  0.0420783174254709  0.6268549449251068   T   T   T
  0.1666666666666643  0.8333333333333357  0.4631075900761132   F   F   F
  0.0000000000000000  0.5000000000000000  0.3878002867427810   F   F   F
  0.3333333333333357  0.6666666666666643  0.5370628400761106   F   F   F
  0.0000000000000000  0.5000000000000000  0.4989287634094453   F   F   F
  0.3333333333333357  0.6666666666666643  0.4297143634094454   F   F   F
  0.3613752321932111  0.6839501328494677  0.6527000653676396   T   T   T
  0.1666666666666643  0.8333333333333357  0.5683119667427761   F   F   F
  0.1666666666666643  0.8333333333333357  0.3576580600761119   F   F   F
  0.0500526696225521  0.5229469761279333  0.6186499804346752   T   T   T
  0.6666666666666643  0.3333333333333357  0.4631075900761132   F   F   F
  0.5000000000000000  0.0000000000000000  0.3878002867427810   F   F   F
  0.8333333333333357  0.1666666666666643  0.5370628400761106   F   F   F
  0.5000000000000000  0.0000000000000000  0.4989287634094453   F   F   F
  0.8333333333333357  0.1666666666666643  0.4297143634094454   F   F   F
  0.8169984206050671  0.2276771354622014  0.6556301893616521   T   T   T
  0.6666666666666643  0.3333333333333357  0.5683119667427761   F   F   F
  0.6666666666666643  0.3333333333333357  0.3576580600761119   F   F   F
  0.4952037867521568  0.0160562055814779  0.6228013068649645   T   T   T
  0.6666666666666643  0.8333333333333357  0.4631075900761132   F   F   F
  0.5000000000000000  0.5000000000000000  0.3878002867427810   F   F   F
  0.8333333333333357  0.6666666666666643  0.5370628400761106   F   F   F
  0.5000000000000000  0.5000000000000000  0.4989287634094453   F   F   F
  0.8333333333333357  0.6666666666666643  0.4297143634094454   F   F   F
  0.8316626814543113  0.5666485370204839  0.6575083662376784   T   T   T
  0.6666666666666643  0.8333333333333357  0.5683119667427761   F   F   F
  0.6666666666666643  0.8333333333333357  0.3576580600761119   F   F   F
  0.5170072840879385  0.5027270548515190  0.6238977448669374   T   T   T
  0.9601562474443099  0.8796554580927847  0.6737344619738366   T   T   T
  0.8865445999625265  0.8361475468636712  0.6588657084558491   T   T   T
 
  0.00000000E+00  0.00000000E+00  0.00000000E+00
  0.00000000E+00  0.00000000E+00  0.00000000E+00
  0.00000000E+00  0.00000000E+00  0.00000000E+00
  0.00000000E+00  0.00000000E+00  0.00000000E+00
  0.00000000E+00  0.00000000E+00  0.00000000E+00
  0.00000000E+00  0.00000000E+00  0.00000000E+00
  0.00000000E+00  0.00000000E+00  0.00000000E+00
  0.00000000E+00  0.00000000E+00  0.00000000E+00
  0.00000000E+00  0.00000000E+00  0.00000000E+00
  0.00000000E+00  0.00000000E+00  0.00000000E+00
  0.00000000E+00  0.00000000E+00  0.00000000E+00
  0.00000000E+00  0.00000000E+00  0.00000000E+00
  0.00000000E+00  0.00000000E+00  0.00000000E+00
  0.00000000E+00  0.00000000E+00  0.00000000E+00
  0.00000000E+00  0.00000000E+00  0.00000000E+00
  0.00000000E+00  0.00000000E+00  0.00000000E+00
  0.00000000E+00  0.00000000E+00  0.00000000E+00
  0.00000000E+00  0.00000000E+00  0.00000000E+00
  0.00000000E+00  0.00000000E+00  0.00000000E+00
  0.00000000E+00  0.00000000E+00  0.00000000E+00
  0.00000000E+00  0.00000000E+00  0.00000000E+00
  0.00000000E+00  0.00000000E+00  0.00000000E+00
  0.00000000E+00  0.00000000E+00  0.00000000E+00
  0.00000000E+00  0.00000000E+00  0.00000000E+00
  0.00000000E+00  0.00000000E+00  0.00000000E+00
  0.00000000E+00  0.00000000E+00  0.00000000E+00
  0.00000000E+00  0.00000000E+00  0.00000000E+00
  0.00000000E+00  0.00000000E+00  0.00000000E+00
  0.00000000E+00  0.00000000E+00  0.00000000E+00
  0.00000000E+00  0.00000000E+00  0.00000000E+00
  0.00000000E+00  0.00000000E+00  0.00000000E+00
  0.00000000E+00  0.00000000E+00  0.00000000E+00
  0.00000000E+00  0.00000000E+00  0.00000000E+00
  0.00000000E+00  0.00000000E+00  0.00000000E+00
  0.00000000E+00  0.00000000E+00  0.00000000E+00
  0.00000000E+00  0.00000000E+00  0.00000000E+00
  0.00000000E+00  0.00000000E+00  0.00000000E+00
  0.00000000E+00  0.00000000E+00  0.00000000E+00
