Bi Te Pb H O
 1.0000000000000000
     9.3555735572755179    0.0000000000000000    0.0000000000000006
    -4.6777867786377580    8.1021643675745487    0.0000000000000006
     0.0000000000000000    0.0000000000000000   51.9786549458288150
Bi Te Pb H O
12 20 4 1 1
Selective dynamics
Cartesian
  0.0000000000000004  2.7007214558581829 24.0717096273605300   F   F   F
  0.0000000000000000  0.0000000000000000 20.1573372924963259   F   F   F
  2.3388933893188795  1.3503607279290917 27.9158040485430377   F   F   F
  0.0000000000000000  0.0000000000000000 25.9336460358085859   F   F   F
  2.3388933893188795  1.3503607279290917 22.3359746209260095   F   F   F
  2.1643461611716037  1.4354637989327783 33.9285367422248498   T   T   T
  0.0000000000000004  2.7007214558581829 29.5400916209082034   F   F   F
  0.0000000000000004  2.7007214558581829 18.5905848932906999   F   F   F
 -0.2964694164984394  0.3409254440921359 32.5830768833487525   T   T   T
 -2.3388933893188786  6.7518036396454573 24.0717096273605300   F   F   F
 -2.3388933893188790  4.0510821837872744 20.1573372924963259   F   F   F
  0.0000000000000004  5.4014429117163658 27.9158040485430377   F   F   F
 -2.3388933893188790  4.0510821837872744 25.9336460358085859   F   F   F
  0.0000000000000004  5.4014429117163658 22.3359746209260095   F   F   F
  0.1814996778703066  5.5414763955708608 33.9264714808645920   T   T   T
 -2.3388933893188786  6.7518036396454573 29.5400916209082034   F   F   F
 -2.3388933893188786  6.7518036396454573 18.5905848932906999   F   F   F
 -1.9779630184680412  4.2370023561145889 32.1565938652578041   T   T   T
  4.6777867786377598  2.7007214558581829 24.0717096273605300   F   F   F
  4.6777867786377589  0.0000000000000000 20.1573372924963259   F   F   F
  7.0166801679566380  1.3503607279290917 27.9158040485430377   F   F   F
  4.6777867786377589  0.0000000000000000 25.9336460358085859   F   F   F
  7.0166801679566380  1.3503607279290917 22.3359746209260095   F   F   F
  6.5784637260854470  1.8446775742532735 34.0787753848976251   T   T   T
  4.6777867786377598  2.7007214558581829 29.5400916209082034   F   F   F
  4.6777867786377598  2.7007214558581829 18.5905848932906999   F   F   F
  4.5578079466170527  0.1300900167407235 32.3723742293453540   T   T   T
  2.3388933893188804  6.7518036396454573 24.0717096273605300   F   F   F
  2.3388933893188799  4.0510821837872744 20.1573372924963259   F   F   F
  4.6777867786377598  5.4014429117163658 27.9158040485430377   F   F   F
  2.3388933893188799  4.0510821837872744 25.9336460358085859   F   F   F
  4.6777867786377598  5.4014429117163658 22.3359746209260095   F   F   F
  5.1300203565779654  4.5910795855856108 34.1764004926639871   T   T   T
  2.3388933893188804  6.7518036396454573 29.5400916209082034   F   F   F
  2.3388933893188804  6.7518036396454573 18.5905848932906999   F   F   F
  2.4852497054839908  4.0731772304337017 32.4293656019193293   T   T   T
  0.1901849491821392 -0.9750512592727322 35.0198111240515217   T   T   T
 -0.2949735015921899 -1.3275595073408637 34.2469533154655963   T   T   T
