Tl Sb Te H O                            
   1.00000000000000     
     9.1309067117241938    0.0000000000000000    0.0000000000000006
    -0.0000000000000006    9.1309067117241938    0.0000000000000006
     0.0000000000000000    0.0000000000000000   41.5521886986188633
   Tl   Sb   Te   H    O 
    18     2    12     1     1
Selective dynamics
Direct
  0.6453696700000009  0.8506581099999977  0.4691584795599795   F   F   F
  0.3671613667853961  0.8426951086843317  0.5331226124135995   T   T   T
  0.0000000000000000  0.0000000000000000  0.5843567062266501   F   F   F
  0.6442990706567144  0.1505633961623261  0.5333661192136603   T   T   T
  0.3546303299999991  0.1493418900000023  0.4691584795599795   F   F   F
  0.8506581099999977  0.3546303299999991  0.4691584795599795   F   F   F
  0.1525154675409865  0.3617819280412036  0.5325783384010592   T   T   T
  0.8429218517691979  0.6411700376257272  0.5332897741144720   T   T   T
  0.1493418900000023  0.6453696700000009  0.4691584795599795   F   F   F
  0.1653992217653695  0.3712502560778574  0.6370983375467461   T   T   T
  0.8572965649999986  0.3504397250000011  0.3645389978933125   F   F   F
  0.5000000000000000  0.5000000000000000  0.4176900395599787   F   F   F
  0.1427034350000014  0.6495602749999989  0.3645389978933125   F   F   F
  0.8652425962378416  0.6678823716583011  0.6392531237248065   T   T   T
  0.3129739780687970  0.8542250817705721  0.6417614750850262   T   T   T
  0.6495602749999989  0.8572965649999986  0.3645389978933125   F   F   F
  0.3504397250000011  0.1427034350000014  0.3645389978933125   F   F   F
  0.6212432604175220  0.1677028826363980  0.6374024042319490   T   T   T
  0.0000000000000000  0.0000000000000000  0.4193422062266450   F   F   F
  0.5000000000000000  0.5000000000000000  0.5860088728933164   F   F   F
  0.0000000000000000  0.0000000000000000  0.4923568195599799   F   F   F
  0.3502979249999996  0.1791192250000009  0.5830971678933139   F   F   F
  0.8208807749999991  0.3502979249999996  0.5830971678933139   F   F   F
  0.5000000000000000  0.5000000000000000  0.5020624978933128   F   F   F
  0.1791192250000009  0.6497020750000004  0.5830971678933139   F   F   F
  0.6497020750000004  0.8208807749999991  0.5830971678933139   F   F   F
  0.4944806224598395  0.5004171063297491  0.6553726626274070   T   T   T
  0.8502979249999996  0.6791192250000009  0.4164305012266496   F   F   F
  0.3208807749999991  0.8502979249999996  0.4164305012266496   F   F   F
  0.0000000000000000  0.0000000000000000  0.3353958312266485   F   F   F
  0.6791192250000009  0.1497020750000004  0.4164305012266496   F   F   F
  0.1497020750000004  0.3208807749999991  0.4164305012266496   F   F   F
  0.0023680772349906  0.9730667886783735  0.6595751100227858   T   T   T
  0.0292606183469459  0.9054211446864144  0.6423418935664884   T   T   T
 
  0.00000000E+00  0.00000000E+00  0.00000000E+00
  0.00000000E+00  0.00000000E+00  0.00000000E+00
  0.00000000E+00  0.00000000E+00  0.00000000E+00
  0.00000000E+00  0.00000000E+00  0.00000000E+00
  0.00000000E+00  0.00000000E+00  0.00000000E+00
  0.00000000E+00  0.00000000E+00  0.00000000E+00
  0.00000000E+00  0.00000000E+00  0.00000000E+00
  0.00000000E+00  0.00000000E+00  0.00000000E+00
  0.00000000E+00  0.00000000E+00  0.00000000E+00
  0.00000000E+00  0.00000000E+00  0.00000000E+00
  0.00000000E+00  0.00000000E+00  0.00000000E+00
  0.00000000E+00  0.00000000E+00  0.00000000E+00
  0.00000000E+00  0.00000000E+00  0.00000000E+00
  0.00000000E+00  0.00000000E+00  0.00000000E+00
  0.00000000E+00  0.00000000E+00  0.00000000E+00
  0.00000000E+00  0.00000000E+00  0.00000000E+00
  0.00000000E+00  0.00000000E+00  0.00000000E+00
  0.00000000E+00  0.00000000E+00  0.00000000E+00
  0.00000000E+00  0.00000000E+00  0.00000000E+00
  0.00000000E+00  0.00000000E+00  0.00000000E+00
  0.00000000E+00  0.00000000E+00  0.00000000E+00
  0.00000000E+00  0.00000000E+00  0.00000000E+00
  0.00000000E+00  0.00000000E+00  0.00000000E+00
  0.00000000E+00  0.00000000E+00  0.00000000E+00
  0.00000000E+00  0.00000000E+00  0.00000000E+00
  0.00000000E+00  0.00000000E+00  0.00000000E+00
  0.00000000E+00  0.00000000E+00  0.00000000E+00
  0.00000000E+00  0.00000000E+00  0.00000000E+00
  0.00000000E+00  0.00000000E+00  0.00000000E+00
  0.00000000E+00  0.00000000E+00  0.00000000E+00
  0.00000000E+00  0.00000000E+00  0.00000000E+00
  0.00000000E+00  0.00000000E+00  0.00000000E+00
  0.00000000E+00  0.00000000E+00  0.00000000E+00
  0.00000000E+00  0.00000000E+00  0.00000000E+00
