Tl Sb Te H O
 1.0000000000000000
     9.1309067117241938    0.0000000000000000    0.0000000000000006
    -0.0000000000000006    9.1309067117241938    0.0000000000000006
     0.0000000000000000    0.0000000000000000   41.5521886986188633
Tl Sb Te H O
18 2 12 1 1
Selective dynamics
Cartesian
  5.8928102513462273  7.7672798459816166 19.4945616722334805   F   F   F
  3.3525161882666104  7.6945704238229444 22.1524113905105260   T   T   T
  0.0000000000000000  0.0000000000000000 24.2813001244330806   F   F   F
  5.8830347086170711  1.3747803245585513 22.1625296310160884   T   T   T
  3.2380964603779678  1.3636268657425770 19.4945616722334769   F   F   F
  7.7672798459816166  3.2380964603779665 19.4945616722334805   F   F   F
  1.3926045062117192  3.3033970349319244 22.1297956140377430   T   T   T
  7.6966407937783350  5.8544637999132298 22.1593573250482514   T   T   T
  1.3636268657425765  5.8928102513462282 19.4945616722334805   F   F   F
  1.5102448641313957  3.3898514549506489 26.4728303413188577   T   T   T
  7.8278949592965965  3.1998324370572817 15.1473932284684487   F   F   F
  4.5654533558620969  4.5654533558620969 17.3559353413299355   F   F   F
  1.3030117524275961  5.9310742746669129 15.1473932284684523   F   F   F
  7.9004494292578027  6.0983716300170654 26.5623664231947068   T   T   T
  2.8577361969433963  7.7998495324620460 26.6665939122370936   T   T   T
  5.9310742746669121  7.8278949592965965 15.1473932284684523   F   F   F
  3.1998324370572817  1.3030117524275966 15.1473932284684523   F   F   F
  5.6725142561597677  1.5312793766401729 26.4854649775992392   T   T   T
  0.0000000000000000  0.0000000000000000 17.4245864824248393   F   F   F
  4.5654533558620969  4.5654533558620969 24.3499512655279844   F   F   F
  0.0000000000000000  0.0000000000000000 20.4585034734081965   F   F   F
  3.1985376744855603  1.6355209337513350 24.2289635499332690   F   F   F
  7.4953857779728592  3.1985376744855594 24.2289635499332690   F   F   F
  4.5654533558620969  4.5654533558620969 20.8617956509629607   F   F   F
  1.6355209337513346  5.9323690372386348 24.2289635499332690   F   F   F
  5.9323690372386340  7.4953857779728592 24.2289635499332690   F   F   F
  4.5150564344360973  4.5692619148479352 27.2321685454101718   T   T   T
  7.7639910303476549  6.2009742896134332 17.3035987668301239   F   F   F
  2.9299324221107623  7.7639910303476549 17.3035987668301239   F   F   F
  0.0000000000000000  0.0000000000000000 13.9364308678598174   F   F   F
  6.2009742896134332  1.3669156813765386 17.3035987668301239   F   F   F
  1.3669156813765384  2.9299324221107628 17.3035987668301239   F   F   F
  0.0216226923188616  8.8849820716992607 27.4067894325789716   T   T   T
  0.2671759764533208  8.2673160069542089 26.6907115705030229   T   T   T
