Te Rh O                                 
   1.00000000000000     
    11.9542345567388093    0.0000000000000000    0.0000000000000007
    -5.9771172783694029   10.3526708089336186    0.0000000000000007
     0.0000000000000000    0.0000000000000000   33.2811080399999994
   Te   Rh   O 
    36    18     1
Selective dynamics
Direct
  0.2222222222222214  0.1111111111111143  0.4583114750000021   F   F   F
  0.1111111111111143  0.2222222222222214  0.3750218583333336   F   F   F
  0.0000000000000000  0.0000000000000000  0.4166666666666643   F   F   F
  0.2262049440971836  0.1173332423722115  0.6250792039556643   T   T   T
  0.1111111111111143  0.2222222222222214  0.5416885249999979   F   F   F
  0.0060732363963112  0.0161938100132843  0.5832021509906085   T   T   T
  0.2222222222222214  0.4444444444444429  0.4583114750000021   F   F   F
  0.1111111111111143  0.5555555555555571  0.3750218583333336   F   F   F
  0.0000000000000000  0.3333333333333357  0.4166666666666643   F   F   F
  0.2225409786834973  0.4452119376950492  0.6242314295045190   T   T   T
  0.1111111111111143  0.5555555555555571  0.5416885249999979   F   F   F
  0.9997321446794771  0.3345114770026569  0.5824600650255150   T   T   T
  0.2222222222222214  0.7777777777777786  0.4583114750000021   F   F   F
  0.1111111111111143  0.8888888888888857  0.3750218583333336   F   F   F
  0.0000000000000000  0.6666666666666643  0.4166666666666643   F   F   F
  0.2200040866826569  0.7777116406771327  0.6240146446255608   T   T   T
  0.1111111111111143  0.8888888888888857  0.5416885249999979   F   F   F
  0.9946118523282905  0.6621991522516453  0.5838837564924404   T   T   T
  0.5555555555555571  0.1111111111111143  0.4583114750000021   F   F   F
  0.4444444444444429  0.2222222222222214  0.3750218583333336   F   F   F
  0.3333333333333357  0.0000000000000000  0.4166666666666643   F   F   F
  0.5548652086995247  0.1098249037975094  0.6253084126803188   T   T   T
  0.4444444444444429  0.2222222222222214  0.5416885249999979   F   F   F
  0.3325646307976768  0.0016632489239115  0.5833697384001013   T   T   T
  0.5555555555555571  0.4444444444444429  0.4583114750000021   F   F   F
  0.4444444444444429  0.5555555555555571  0.3750218583333336   F   F   F
  0.3333333333333357  0.3333333333333357  0.4166666666666643   F   F   F
  0.5513232129804280  0.4383834951117223  0.6256958927730452   T   T   T
  0.4444444444444429  0.5555555555555571  0.5416885249999979   F   F   F
  0.3337782459088530  0.3338078387241339  0.5823747268877497   T   T   T
  0.5555555555555571  0.7777777777777786  0.4583114750000021   F   F   F
  0.4444444444444429  0.8888888888888857  0.3750218583333336   F   F   F
  0.3333333333333357  0.6666666666666643  0.4166666666666643   F   F   F
  0.5578883248254414  0.7778400031555108  0.6239437908227998   T   T   T
  0.4444444444444429  0.8888888888888857  0.5416885249999979   F   F   F
  0.3338941328124747  0.6677477772016331  0.5833628082898414   T   T   T
  0.8888888888888857  0.1111111111111143  0.4583114750000021   F   F   F
  0.7777777777777786  0.2222222222222214  0.3750218583333336   F   F   F
  0.6666666666666643  0.0000000000000000  0.4166666666666643   F   F   F
  0.8902248966173403  0.1192887739620687  0.6257800445636690   T   T   T
  0.7777777777777786  0.2222222222222214  0.5416885249999979   F   F   F
  0.6699747345707010  0.0022211235239809  0.5834905837608915   T   T   T
  0.8888888888888857  0.4444444444444429  0.4583114750000021   F   F   F
  0.7777777777777786  0.5555555555555571  0.3750218583333336   F   F   F
  0.6666666666666643  0.3333333333333357  0.4166666666666643   F   F   F
  0.8867783218426339  0.4393351632150910  0.6258757827974364   T   T   T
  0.7777777777777786  0.5555555555555571  0.5416885249999979   F   F   F
  0.6656502247449296  0.3313044991797298  0.5830486458095550   T   T   T
  0.8888888888888857  0.7777777777777786  0.4583114750000021   F   F   F
  0.7777777777777786  0.8888888888888857  0.3750218583333336   F   F   F
  0.6666666666666643  0.6666666666666643  0.4166666666666643   F   F   F
  0.8584269611189796  0.7172741596529306  0.6344885789540058   T   T   T
  0.7777777777777786  0.8888888888888857  0.5416885249999979   F   F   F
  0.6669805260864905  0.6619079547524933  0.5837738953792524   T   T   T
  0.9492840056198659  0.9025462804523343  0.6364046729210600   T   T   T
 
  0.00000000E+00  0.00000000E+00  0.00000000E+00
  0.00000000E+00  0.00000000E+00  0.00000000E+00
  0.00000000E+00  0.00000000E+00  0.00000000E+00
  0.00000000E+00  0.00000000E+00  0.00000000E+00
  0.00000000E+00  0.00000000E+00  0.00000000E+00
  0.00000000E+00  0.00000000E+00  0.00000000E+00
  0.00000000E+00  0.00000000E+00  0.00000000E+00
  0.00000000E+00  0.00000000E+00  0.00000000E+00
  0.00000000E+00  0.00000000E+00  0.00000000E+00
  0.00000000E+00  0.00000000E+00  0.00000000E+00
  0.00000000E+00  0.00000000E+00  0.00000000E+00
  0.00000000E+00  0.00000000E+00  0.00000000E+00
  0.00000000E+00  0.00000000E+00  0.00000000E+00
  0.00000000E+00  0.00000000E+00  0.00000000E+00
  0.00000000E+00  0.00000000E+00  0.00000000E+00
  0.00000000E+00  0.00000000E+00  0.00000000E+00
  0.00000000E+00  0.00000000E+00  0.00000000E+00
  0.00000000E+00  0.00000000E+00  0.00000000E+00
  0.00000000E+00  0.00000000E+00  0.00000000E+00
  0.00000000E+00  0.00000000E+00  0.00000000E+00
  0.00000000E+00  0.00000000E+00  0.00000000E+00
  0.00000000E+00  0.00000000E+00  0.00000000E+00
  0.00000000E+00  0.00000000E+00  0.00000000E+00
  0.00000000E+00  0.00000000E+00  0.00000000E+00
  0.00000000E+00  0.00000000E+00  0.00000000E+00
  0.00000000E+00  0.00000000E+00  0.00000000E+00
  0.00000000E+00  0.00000000E+00  0.00000000E+00
  0.00000000E+00  0.00000000E+00  0.00000000E+00
  0.00000000E+00  0.00000000E+00  0.00000000E+00
  0.00000000E+00  0.00000000E+00  0.00000000E+00
  0.00000000E+00  0.00000000E+00  0.00000000E+00
  0.00000000E+00  0.00000000E+00  0.00000000E+00
  0.00000000E+00  0.00000000E+00  0.00000000E+00
  0.00000000E+00  0.00000000E+00  0.00000000E+00
  0.00000000E+00  0.00000000E+00  0.00000000E+00
  0.00000000E+00  0.00000000E+00  0.00000000E+00
  0.00000000E+00  0.00000000E+00  0.00000000E+00
  0.00000000E+00  0.00000000E+00  0.00000000E+00
  0.00000000E+00  0.00000000E+00  0.00000000E+00
  0.00000000E+00  0.00000000E+00  0.00000000E+00
  0.00000000E+00  0.00000000E+00  0.00000000E+00
  0.00000000E+00  0.00000000E+00  0.00000000E+00
  0.00000000E+00  0.00000000E+00  0.00000000E+00
  0.00000000E+00  0.00000000E+00  0.00000000E+00
  0.00000000E+00  0.00000000E+00  0.00000000E+00
  0.00000000E+00  0.00000000E+00  0.00000000E+00
  0.00000000E+00  0.00000000E+00  0.00000000E+00
  0.00000000E+00  0.00000000E+00  0.00000000E+00
  0.00000000E+00  0.00000000E+00  0.00000000E+00
  0.00000000E+00  0.00000000E+00  0.00000000E+00
  0.00000000E+00  0.00000000E+00  0.00000000E+00
  0.00000000E+00  0.00000000E+00  0.00000000E+00
  0.00000000E+00  0.00000000E+00  0.00000000E+00
  0.00000000E+00  0.00000000E+00  0.00000000E+00
  0.00000000E+00  0.00000000E+00  0.00000000E+00
