Te Rh O
 1.0000000000000000
    11.9542345567388093    0.0000000000000000    0.0000000000000007
    -5.9771172783694029   10.3526708089336186    0.0000000000000007
     0.0000000000000000    0.0000000000000000   33.2811080399999994
Te Rh O
36 18 1
Selective dynamics
Cartesian
  1.9923724261231346  1.1502967565481799 15.2531137154467622   F   F   F
 -0.0000000000000004  2.3005935130963593 12.4811429845532409   F   F   F
  0.0000000000000000  0.0000000000000000 13.8671283499999998   F   F   F
  2.0027924093216516  1.2147124332243424 20.8033285204057243   T   T   T
 -0.0000000000000004  2.3005935130963593 18.0279943245532408   F   F   F
 -0.0241914092330262  0.1676491842099495 19.4096137962788866   T   T   T
  0.0000000000000002  4.6011870261927195 15.2531137154467622   F   F   F
 -1.9923724261231348  5.7514837827408982 12.4811429845532409   F   F   F
 -1.9923724261231344  3.4508902696445394 13.8671283499999998   F   F   F
 -0.0007769076646580  4.6091326311643295 20.7751136473036091   T   T   T
 -1.9923724261231348  5.7514837827408982 18.0279943245532408   F   F   F
 -2.0026163343342578  3.4630872032186990 19.3849163530995661   T   T   T
 -1.9923724261231341  8.0520772958372593 15.2531137154467622   F   F   F
 -3.9847448522462692  9.2023740523854372 12.4811429845532409   F   F   F
 -3.9847448522462687  6.9017805392890788 13.8671283499999998   F   F   F
 -2.0184932294347759  8.0513926002060519 20.7678988063254870   T   T   T
 -3.9847448522462692  9.2023740523854372 18.0279943245532408   F   F   F
 -4.0224531757388213  6.8555298332161820 19.4322983826260547   T   T   T
  5.9771172783694038  1.1502967565481799 15.2531137154467622   F   F   F
  3.9847448522462692  2.3005935130963593 12.4811429845532409   F   F   F
  3.9847448522462696  0.0000000000000000 13.8671283499999998   F   F   F
  5.9765525220846012  1.1369810756384526 20.8109568407346011   T   T   T
  3.9847448522462692  2.3005935130963593 18.0279943245532408   F   F   F
  3.9656141679493726  0.0172190685825626 19.4151912909602338   T   T   T
  3.9847448522462701  4.6011870261927195 15.2531137154467622   F   F   F
  1.9923724261231348  5.7514837827408982 12.4811429845532409   F   F   F
  1.9923724261231353  3.4508902696445394 13.8671283499999998   F   F   F
  3.9703774413586261  4.5384400129614457 20.8238526075639889   T   T   T
  1.9923724261231348  5.7514837827408982 18.0279943245532408   F   F   F
  1.9948548410381290  3.4558026677525295 19.3820762053165758   T   T   T
  1.9923724261231355  8.0520772958372593 15.2531137154467622   F   F   F
  0.0000000000000004  9.2023740523854372 12.4811429845532409   F   F   F
  0.0000000000000009  6.9017805392890788 13.8671283499999998   F   F   F
  2.0198869687616634  8.0527214946889192 20.7655407132608012   T   T   T
  0.0000000000000004  9.2023740523854372 18.0279943245532408   F   F   F
  0.0002420040545994  6.9129729207656547 19.4149606492120306   T   T   T
  9.9618621306156747  1.1502967565481799 15.2531137154467622   F   F   F
  7.9694897044925384  2.3005935130963593 12.4811429845532409   F   F   F
  7.9694897044925392  0.0000000000000000 13.8671283499999998   F   F   F
  9.9289542304480456  1.2349574080305887 20.8266532723993656   T   T   T
  7.9694897044925384  2.3005935130963593 18.0279943245532408   F   F   F
  7.9957592083543796  0.0229945606697584 19.4192131584689882   T   T   T
  7.9694897044925392  4.6011870261927195 15.2531137154467622   F   F   F
  5.9771172783694038  5.7514837827408982 12.4811429845532409   F   F   F
  5.9771172783694047  3.4508902696445394 13.8671283499999998   F   F   F
  7.9747982640898636  4.5482923195549754 20.8298395469011517   T   T   T
  5.9771172783694038  5.7514837827408982 18.0279943245532408   F   F   F
  5.9770930728981275  3.4298864175263835 19.4045049737634194   T   T   T
  5.9771172783694055  8.0520772958372593 15.2531137154467640   F   F   F
  3.9847448522462701  9.2023740523854372 12.4811429845532427   F   F   F
  3.9847448522462705  6.9017805392890788 13.8671283500000015   F   F   F
  5.9746054700553941  7.4257032546413004 21.1164829463143029   T   T   T
  3.9847448522462701  9.2023740523854372 18.0279943245532408   F   F   F
  4.0169401805736324  6.8525151613670952 19.4286420830486399   T   T   T
 -0.0237785816486853 -1.0089062775830953 21.1802526766467665   T   T   T
