Cu S Si                                 
   1.00000000000000     
    12.7759398915574174    0.0000000000000000   -1.0669018186984747
    -2.0788424167086705   12.8182868293803516   -0.5858870654457955
     0.0000000000000000    0.0000000000000000   32.3571556653272836
   Cu   S    Si
    32    48    16
Selective dynamics
Direct
  0.2053425032692218  0.2553865717759365  0.6372752259099457   T   T   T
  0.4660076510614246  0.0954692177092227  0.5701794179190145   T   T   T
  0.4953351613010000  0.3527957110970021  0.5101690273979997   F   F   F
  0.2307447996343299  0.2214824560970001  0.5393497507313327   F   F   F
  0.2603894196343362  0.4777863360970045  0.4818025207313354   F   F   F
  0.0512089938009979  0.3451625035970025  0.4001633723980049   F   F   F
  0.0786684946343357  0.1027957110970021  0.3435023607313354   F   F   F
  0.3140781329676656  0.4714824560970001  0.3726830840646684   F   F   F
  0.1471483296343337  0.1199352010970003  0.5875474307313340   F   F   F
  0.3698852872873886  0.2663246092812201  0.6693033681844938   T   T   T
  0.3655494868780949  0.4945706532662228  0.6134914284132904   T   T   T
  0.1055734325464215  0.3876609750242466  0.6375777793082236   T   T   T
  0.1756518379676635  0.3818428510970051  0.5316657840646712   F   F   F
  0.4115944754676661  0.2553265885970006  0.5597805090646659   F   F   F
  0.2304816629676694  0.3699352010970003  0.4208807640646697   F   F   F
  0.4407126538010004  0.0120141185970013  0.5004187823980004   F   F   F
  0.4538553304676682  0.2468634135970049  0.4473419090646686   F   F   F
  0.1912135721343304  0.1330875885970002  0.4726254257313371   F   F   F
  0.2589851713009992  0.1318428510970051  0.3649991173979998   F   F   F
  0.4949278088010018  0.0053265885970006  0.3931138423980016   F   F   F
  0.1946970679676667  0.4695972860970059  0.5900190240646666   F   F   F
  0.4275800807066759  0.3421580444965713  0.6195869082363359   T   T   T
  0.2780304013010024  0.2195972860969988  0.4233523573980023   F   F   F
  0.0139356096343306  0.0927441610970021  0.4515419407313317   F   F   F
  0.2053014147417045  0.7552513569294916  0.6373258231362513   T   T   T
  0.4660697177565254  0.5954732060680001  0.5701770672544413   T   T   T
  0.4953351613010000  0.8527957110970021  0.5101690273979997   F   F   F
  0.2307447996343299  0.7214824560970001  0.5393497507313327   F   F   F
  0.2603894196343362  0.9777863360970045  0.4818025207313354   F   F   F
  0.0512089938009979  0.8451625035970025  0.4001633723980049   F   F   F
  0.0786684946343357  0.6027957110970021  0.3435023607313354   F   F   F
  0.3140781329676656  0.9714824560970001  0.3726830840646684   F   F   F
  0.1471483296343337  0.6199352010970003  0.5875474307313340   F   F   F
  0.3699076430339474  0.7662220839439584  0.6693274046014110   T   T   T
  0.3655172486493186  0.9945016612123680  0.6135153891874197   T   T   T
  0.1056085292130930  0.8876303383007098  0.6375805466083762   T   T   T
  0.1756518379676635  0.8818428510970051  0.5316657840646712   F   F   F
  0.4115944754676661  0.7553265885970006  0.5597805090646659   F   F   F
  0.2304816629676694  0.8699352010970003  0.4208807640646697   F   F   F
  0.4407126538010004  0.5120141185970013  0.5004187823980004   F   F   F
  0.4538553304676682  0.7468634135970049  0.4473419090646686   F   F   F
  0.1912135721343304  0.6330875885970002  0.4726254257313371   F   F   F
  0.2589851713009992  0.6318428510970051  0.3649991173979998   F   F   F
  0.4949278088010018  0.5053265885970006  0.3931138423980016   F   F   F
  0.1946970679676667  0.9695972860970059  0.5900190240646666   F   F   F
  0.4276004492847179  0.8420626773380349  0.6196217999081384   T   T   T
  0.2780304013010024  0.7195972860969988  0.4233523573980023   F   F   F
  0.0139356096343306  0.5927441610970021  0.4515419407313317   F   F   F
  0.7052807092741205  0.2553322787847492  0.6372726360706409   T   T   T
  0.9659949789799072  0.0954478930539651  0.5701042394852678   T   T   T
  0.9953351613010000  0.3527957110970021  0.5101690273979997   F   F   F
  0.7307447996343299  0.2214824560970001  0.5393497507313327   F   F   F
  0.7603894196343362  0.4777863360970045  0.4818025207313354   F   F   F
  0.5512089938009979  0.3451625035970025  0.4001633723980049   F   F   F
  0.5786684946343357  0.1027957110970021  0.3435023607313354   F   F   F
  0.8140781329676656  0.4714824560970001  0.3726830840646684   F   F   F
  0.6471483296343337  0.1199352010970003  0.5875474307313340   F   F   F
  0.8699005073631483  0.2663818773288966  0.6692995740853078   T   T   T
  0.8655605826533375  0.4945825304148812  0.6134520563069401   T   T   T
  0.6056233964512714  0.3876856559861110  0.6375988812591373   T   T   T
  0.6756518379676635  0.3818428510970051  0.5316657840646712   F   F   F
  0.9115944754676661  0.2553265885970006  0.5597805090646659   F   F   F
  0.7304816629676623  0.3699352010970003  0.4208807640646697   F   F   F
  0.9407126538010004  0.0120141185970013  0.5004187823980004   F   F   F
  0.9538553304676682  0.2468634135970049  0.4473419090646686   F   F   F
  0.6912135721343304  0.1330875885970002  0.4726254257313371   F   F   F
  0.7589851713009992  0.1318428510970051  0.3649991173979998   F   F   F
  0.9949278088010018  0.0053265885970006  0.3931138423980016   F   F   F
  0.6946970679676667  0.4695972860970059  0.5900190240646666   F   F   F
  0.9275378722785348  0.3421698688925972  0.6195788991401230   T   T   T
  0.7780304013010024  0.2195972860969988  0.4233523573980023   F   F   F
  0.5139356096343306  0.0927441610970021  0.4515419407313317   F   F   F
  0.7052458230204977  0.7552201436812425  0.6373151337215148   T   T   T
  0.9660597343024051  0.5954478582399290  0.5700971666737473   T   T   T
  0.9953351613010000  0.8527957110970021  0.5101690273979997   F   F   F
  0.7307447996343299  0.7214824560970001  0.5393497507313327   F   F   F
  0.7603894196343362  0.9777863360970045  0.4818025207313354   F   F   F
  0.5512089938009979  0.8451625035970025  0.4001633723980049   F   F   F
  0.5786684946343357  0.6027957110970021  0.3435023607313354   F   F   F
  0.8140781329676656  0.9714824560970001  0.3726830840646684   F   F   F
  0.6471483296343337  0.6199352010970003  0.5875474307313340   F   F   F
  0.8699207908142839  0.7662729303585678  0.6693239292148547   T   T   T
  0.8655315550851697  0.9945043056464726  0.6134766388535269   T   T   T
  0.6056435441077141  0.8876589709650204  0.6376002586623315   T   T   T
  0.6756518379676635  0.8818428510970051  0.5316657840646712   F   F   F
  0.9115944754676661  0.7553265885970006  0.5597805090646659   F   F   F
  0.7304816629676694  0.8699352010970003  0.4208807640646697   F   F   F
  0.9407126538010004  0.5120141185970013  0.5004187823980004   F   F   F
  0.9538553304676682  0.7468634135970049  0.4473419090646686   F   F   F
  0.6912135721343304  0.6330875885970002  0.4726254257313371   F   F   F
  0.7589851713009992  0.6318428510970051  0.3649991173979998   F   F   F
  0.9949278088010018  0.5053265885970006  0.3931138423980016   F   F   F
  0.6946970679676667  0.9695972860970059  0.5900190240646666   F   F   F
  0.9275635048082123  0.8420643665712007  0.6196133655188234   T   T   T
  0.7780304013010024  0.7195972860969988  0.4233523573980023   F   F   F
  0.5139356096343306  0.5927441610970021  0.4515419407313317   F   F   F
 
  0.00000000E+00  0.00000000E+00  0.00000000E+00
  0.00000000E+00  0.00000000E+00  0.00000000E+00
  0.00000000E+00  0.00000000E+00  0.00000000E+00
  0.00000000E+00  0.00000000E+00  0.00000000E+00
  0.00000000E+00  0.00000000E+00  0.00000000E+00
  0.00000000E+00  0.00000000E+00  0.00000000E+00
  0.00000000E+00  0.00000000E+00  0.00000000E+00
  0.00000000E+00  0.00000000E+00  0.00000000E+00
  0.00000000E+00  0.00000000E+00  0.00000000E+00
  0.00000000E+00  0.00000000E+00  0.00000000E+00
  0.00000000E+00  0.00000000E+00  0.00000000E+00
  0.00000000E+00  0.00000000E+00  0.00000000E+00
  0.00000000E+00  0.00000000E+00  0.00000000E+00
  0.00000000E+00  0.00000000E+00  0.00000000E+00
  0.00000000E+00  0.00000000E+00  0.00000000E+00
  0.00000000E+00  0.00000000E+00  0.00000000E+00
  0.00000000E+00  0.00000000E+00  0.00000000E+00
  0.00000000E+00  0.00000000E+00  0.00000000E+00
  0.00000000E+00  0.00000000E+00  0.00000000E+00
  0.00000000E+00  0.00000000E+00  0.00000000E+00
  0.00000000E+00  0.00000000E+00  0.00000000E+00
  0.00000000E+00  0.00000000E+00  0.00000000E+00
  0.00000000E+00  0.00000000E+00  0.00000000E+00
  0.00000000E+00  0.00000000E+00  0.00000000E+00
  0.00000000E+00  0.00000000E+00  0.00000000E+00
  0.00000000E+00  0.00000000E+00  0.00000000E+00
  0.00000000E+00  0.00000000E+00  0.00000000E+00
  0.00000000E+00  0.00000000E+00  0.00000000E+00
  0.00000000E+00  0.00000000E+00  0.00000000E+00
  0.00000000E+00  0.00000000E+00  0.00000000E+00
  0.00000000E+00  0.00000000E+00  0.00000000E+00
  0.00000000E+00  0.00000000E+00  0.00000000E+00
  0.00000000E+00  0.00000000E+00  0.00000000E+00
  0.00000000E+00  0.00000000E+00  0.00000000E+00
  0.00000000E+00  0.00000000E+00  0.00000000E+00
  0.00000000E+00  0.00000000E+00  0.00000000E+00
  0.00000000E+00  0.00000000E+00  0.00000000E+00
  0.00000000E+00  0.00000000E+00  0.00000000E+00
  0.00000000E+00  0.00000000E+00  0.00000000E+00
  0.00000000E+00  0.00000000E+00  0.00000000E+00
  0.00000000E+00  0.00000000E+00  0.00000000E+00
  0.00000000E+00  0.00000000E+00  0.00000000E+00
  0.00000000E+00  0.00000000E+00  0.00000000E+00
  0.00000000E+00  0.00000000E+00  0.00000000E+00
  0.00000000E+00  0.00000000E+00  0.00000000E+00
  0.00000000E+00  0.00000000E+00  0.00000000E+00
  0.00000000E+00  0.00000000E+00  0.00000000E+00
  0.00000000E+00  0.00000000E+00  0.00000000E+00
  0.00000000E+00  0.00000000E+00  0.00000000E+00
  0.00000000E+00  0.00000000E+00  0.00000000E+00
  0.00000000E+00  0.00000000E+00  0.00000000E+00
  0.00000000E+00  0.00000000E+00  0.00000000E+00
  0.00000000E+00  0.00000000E+00  0.00000000E+00
  0.00000000E+00  0.00000000E+00  0.00000000E+00
  0.00000000E+00  0.00000000E+00  0.00000000E+00
  0.00000000E+00  0.00000000E+00  0.00000000E+00
  0.00000000E+00  0.00000000E+00  0.00000000E+00
  0.00000000E+00  0.00000000E+00  0.00000000E+00
  0.00000000E+00  0.00000000E+00  0.00000000E+00
  0.00000000E+00  0.00000000E+00  0.00000000E+00
  0.00000000E+00  0.00000000E+00  0.00000000E+00
  0.00000000E+00  0.00000000E+00  0.00000000E+00
  0.00000000E+00  0.00000000E+00  0.00000000E+00
  0.00000000E+00  0.00000000E+00  0.00000000E+00
  0.00000000E+00  0.00000000E+00  0.00000000E+00
  0.00000000E+00  0.00000000E+00  0.00000000E+00
  0.00000000E+00  0.00000000E+00  0.00000000E+00
  0.00000000E+00  0.00000000E+00  0.00000000E+00
  0.00000000E+00  0.00000000E+00  0.00000000E+00
  0.00000000E+00  0.00000000E+00  0.00000000E+00
  0.00000000E+00  0.00000000E+00  0.00000000E+00
  0.00000000E+00  0.00000000E+00  0.00000000E+00
  0.00000000E+00  0.00000000E+00  0.00000000E+00
  0.00000000E+00  0.00000000E+00  0.00000000E+00
  0.00000000E+00  0.00000000E+00  0.00000000E+00
  0.00000000E+00  0.00000000E+00  0.00000000E+00
  0.00000000E+00  0.00000000E+00  0.00000000E+00
  0.00000000E+00  0.00000000E+00  0.00000000E+00
  0.00000000E+00  0.00000000E+00  0.00000000E+00
  0.00000000E+00  0.00000000E+00  0.00000000E+00
  0.00000000E+00  0.00000000E+00  0.00000000E+00
  0.00000000E+00  0.00000000E+00  0.00000000E+00
  0.00000000E+00  0.00000000E+00  0.00000000E+00
  0.00000000E+00  0.00000000E+00  0.00000000E+00
  0.00000000E+00  0.00000000E+00  0.00000000E+00
  0.00000000E+00  0.00000000E+00  0.00000000E+00
  0.00000000E+00  0.00000000E+00  0.00000000E+00
  0.00000000E+00  0.00000000E+00  0.00000000E+00
  0.00000000E+00  0.00000000E+00  0.00000000E+00
  0.00000000E+00  0.00000000E+00  0.00000000E+00
  0.00000000E+00  0.00000000E+00  0.00000000E+00
  0.00000000E+00  0.00000000E+00  0.00000000E+00
  0.00000000E+00  0.00000000E+00  0.00000000E+00
  0.00000000E+00  0.00000000E+00  0.00000000E+00
  0.00000000E+00  0.00000000E+00  0.00000000E+00
  0.00000000E+00  0.00000000E+00  0.00000000E+00
