Co Te Pd O
 1.0000000000000000
    10.5874116772654627    0.0000000000000000    0.0000000000000006
    -0.0000000000000008   12.7555817893690921    0.0000000000000008
     0.0000000000000000    0.0000000000000000   33.8815957568399924
Co Te Pd O
16 32 32 1
Selective dynamics
Cartesian
  1.3355896574108539  0.0092639267968480 19.7712907587302418   T   T   T
  3.9783947044686938 -0.0013986543940518 19.7754683698309002   T   T   T
  3.9702793789745483  3.1888954473422730 14.1173315653499980   F   F   F
  1.3234264596581833  3.1888954473422730 14.1173315653499980   F   F   F
 -0.0000000000000001  1.8180837177240270 12.4915965466128434   F   F   F
  2.6487018366362416  1.4006985850519345 21.4323548412032423   T   T   T
  0.0013026021470065  4.9860082617438497 21.4502780921504481   T   T   T
  2.6468529193163652  4.5597071769605195 12.4915965466128434   F   F   F
  2.6468529193163652  5.0069791650662996 18.1385291727528433   F   F   F
 -0.0000000000000003  4.5597071769605195 15.7430665840871526   F   F   F
  2.6468529193163657  1.8180837177240270 15.7430665840871526   F   F   F
 -0.0000000000000001  1.3708117296182467 18.1385291727528433   F   F   F
  2.6436563732650091  4.0237019897504664 20.8692341412206765   T   T   T
  2.6468529193163657  0.8450899478350833 12.9213014094707770   F   F   F
  0.0074762840231413  2.3767329278430140 20.8630338123148427   T   T   T
 -0.0000000000000003  5.5327009468494630 12.9213014094707770   F   F   F
 -0.0000000000000001  0.8450899478350833 15.3133617212292190   F   F   F
 -0.0000000000000002  4.0339853951773561 18.5682340356107751   F   F   F
  2.6468529193163652  5.5327009468494630 15.3133617212292190   F   F   F
  2.6468529193163657  2.3438054995071895 18.5682340356107751   F   F   F
  1.3262621822510461  6.3853768528011248 19.7695575455764576   T   T   T
  3.9739632416119925  6.3748799744585600 19.7642825892872445   T   T   T
  3.9702793789745479  9.5666863420268200 14.1173315653499980   F   F   F
  1.3234264596581828  9.5666863420268200 14.1173315653499980   F   F   F
 -0.0000000000000005  8.1958746124085735 12.4915965466128434   F   F   F
  2.6635043490779884  7.7835978187254558 21.4352231100530943   T   T   T
  0.0157018927275196 11.3867782046983130 21.4387807532077304   T   T   T
  2.6468529193163648 10.9374980716450665 12.4915965466128434   F   F   F
  2.6468529193163648 11.3847700597508457 18.1385291727528433   F   F   F
 -0.0000000000000007 10.9374980716450665 15.7430665840871526   F   F   F
  2.6468529193163652  8.1958746124085735 15.7430665840871526   F   F   F
 -0.0000000000000005  7.7486026243027926 18.1385291727528433   F   F   F
  2.6475274648502762 10.4052214117342565 20.8641139872161325   T   T   T
  2.6468529193163652  7.2228808425196291 12.9213014094707770   F   F   F
  0.0095969961971599  8.7372146545304048 20.9072193976317244   T   T   T
 -0.0000000000000007 11.9104918415340091 12.9213014094707770   F   F   F
 -0.0000000000000004  7.2228808425196291 15.3133617212292190   F   F   F
 -0.0000000000000006 10.4117762898619013 18.5682340356107751   F   F   F
  2.6468529193163648 11.9104918415340091 15.3133617212292190   F   F   F
  2.6468529193163652  8.7215963941917352 18.5682340356107751   F   F   F
  6.6244443599634799  0.0048395828362118 19.7763963735379313   T   T   T
  9.2671002499848161  0.0120475176136097 19.7661726254046464   T   T   T
  9.2639852176072797  3.1888954473422730 14.1173315653499980   F   F   F
  6.6171322982909144  3.1888954473422730 14.1173315653499980   F   F   F
  5.2937058386327314  1.8180837177240270 12.4915965466128434   F   F   F
  7.9625706875821916  1.3937163188811541 21.4402722452980115   T   T   T
  5.2943990510469936  4.9674192639564030 21.4396216576753531   T   T   T
  7.9405587579490966  4.5597071769605195 12.4915965466128434   F   F   F
  7.9405587579490966  5.0069791650662996 18.1385291727528433   F   F   F
  5.2937058386327314  4.5597071769605195 15.7430665840871526   F   F   F
  7.9405587579490966  1.8180837177240270 15.7430665840871526   F   F   F
  5.2937058386327314  1.3708117296182467 18.1385291727528433   F   F   F
  7.9472421969581628  4.0124851820301641 20.8685076275687784   T   T   T
  7.9405587579490966  0.8450899478350833 12.9213014094707770   F   F   F
  5.2988225646171392  2.3567486383558305 20.8656666546703669   T   T   T
  5.2937058386327314  5.5327009468494630 12.9213014094707770   F   F   F
  5.2937058386327314  0.8450899478350833 15.3133617212292190   F   F   F
  5.2937058386327314  4.0339853951773561 18.5682340356107751   F   F   F
  7.9405587579490966  5.5327009468494630 15.3133617212292190   F   F   F
  7.9405587579490966  2.3438054995071895 18.5682340356107751   F   F   F
  6.6148593640896145  6.3735929951440600 19.7666683270218293   T   T   T
  9.2605774564801155  6.3865304869646540 19.7736024232800212   T   T   T
  9.2639852176072797  9.5666863420268200 14.1173315653499980   F   F   F
  6.6171322982909144  9.5666863420268200 14.1173315653499980   F   F   F
  5.2937058386327314  8.1958746124085735 12.4915965466128434   F   F   F
  7.9253397831685870  7.7904809625948008 21.4359708722078821   T   T   T
  5.3095674007321483 11.3600053849769402 21.4458650080598190   T   T   T
  7.9405587579490966 10.9374980716450665 12.4915965466128434   F   F   F
  7.9405587579490966 11.3847700597508457 18.1385291727528433   F   F   F
  5.2937058386327314 10.9374980716450665 15.7430665840871526   F   F   F
  7.9405587579490966  8.1958746124085735 15.7430665840871526   F   F   F
  5.2937058386327314  7.7486026243027926 18.1385291727528433   F   F   F
  7.9878296279308270 10.4099313284492574 20.8567796802926928   T   T   T
  7.9405587579490966  7.2228808425196291 12.9213014094707770   F   F   F
  5.2967411795874701  8.7391999410893249 20.8607546465027731   T   T   T
  5.2937058386327314 11.9104918415340091 12.9213014094707770   F   F   F
  5.2937058386327314  7.2228808425196291 15.3133617212292190   F   F   F
  5.2937058386327314 10.4117762898619013 18.5682340356107751   F   F   F
  7.9405587579490966 11.9104918415340091 15.3133617212292190   F   F   F
  7.9405587579490966  8.7215963941917352 18.5682340356107751   F   F   F
  0.0394077139565424 11.9617394197343305 23.2077100871496924   T   T   T
