Cd Ge Se                                
   1.00000000000000     
    15.4276159042126828    0.0000000000000000    0.0000000000000009
    -0.0000000000000008   12.5648332814656172    4.5455312936084002
     0.0000000000000000    0.0000000000000000   40.0179154950146199
   Cd   Ge   Se
    32     8    48
Selective dynamics
Direct
  0.1967537625000020  0.5060743800000012  0.5276585322828780   F   F   F
  0.3032462374999980  0.0060743800000012  0.5276585322828780   F   F   F
  0.4471672625000025  0.6940883999999983  0.5354901389495410   F   F   F
  0.3028327374999975  0.1940883999999983  0.3688234722828767   F   F   F
  0.4633054500000000  0.6993249000000006  0.4211424772828778   F   F   F
  0.2865406390884644  0.1987048211402467  0.5927445798888016   T   T   T
  0.1474850900000035  0.8562214800000021  0.4661341472828795   F   F   F
  0.3525149099999965  0.3562214800000021  0.4661341472828795   F   F   F
  0.4467537625000020  0.5060743800000012  0.3609918656162137   F   F   F
  0.0532462374999980  0.0060743800000012  0.3609918656162137   F   F   F
  0.1971672625000025  0.6940883999999983  0.3688234722828767   F   F   F
  0.0528327374999975  0.1940883999999983  0.5354901389495410   F   F   F
  0.2134450590604331  0.6987374480190311  0.5927664021303087   T   T   T
  0.0366945500000000  0.1993249000000006  0.4211424772828778   F   F   F
  0.4023101269167171  0.9092802688151096  0.6175492782290775   T   T   T
  0.0977493395808224  0.4093692940390881  0.6175196234488496   T   T   T
  0.3677982998288059  0.4369829224222315  0.6126013504728789   T   T   T
  0.3853868225000028  0.9429900599999996  0.4442190256162135   F   F   F
  0.1146131774999972  0.4429900599999996  0.4442190256162135   F   F   F
  0.1322152605244256  0.9369583892150786  0.6126143977294589   T   T   T
  0.3765175974999977  0.1916705499999978  0.5290536289495478   F   F   F
  0.1234824025000023  0.6916705499999978  0.5290536289495478   F   F   F
  0.3709391699999998  0.4972009000000028  0.5473450139495455   F   F   F
  0.1290608300000002  0.9972009000000028  0.5473450139495455   F   F   F
  0.3636904724999965  0.8133133999999984  0.5709544156162139   F   F   F
  0.1363095275000035  0.3133133999999984  0.5709544156162139   F   F   F
  0.3634858074999983  0.7540413299999997  0.4692048756162137   F   F   F
  0.3896736048108593  0.2516786757387237  0.6364488984477532   T   T   T
  0.0106308399999975  0.9961775399999979  0.4691590372828784   F   F   F
  0.4893691600000025  0.4961775399999979  0.4691590372828784   F   F   F
  0.2581896224999980  0.0238970600000030  0.4595127489495425   F   F   F
  0.4797175925658692  0.5269753661952734  0.6313146103646687   T   T   T
  0.1265175974999977  0.1916705499999978  0.3623869622828764   F   F   F
  0.3734824025000023  0.6916705499999978  0.3623869622828764   F   F   F
  0.1209391699999998  0.4972009000000028  0.3806783472828812   F   F   F
  0.3790608300000002  0.9972009000000028  0.3806783472828812   F   F   F
  0.1136904724999965  0.8133133999999984  0.4042877489495424   F   F   F
  0.3863095275000035  0.3133133999999984  0.4042877489495424   F   F   F
  0.1102885593871434  0.7516618686639660  0.6364775627128125   T   T   T
  0.1365141925000017  0.2540413299999997  0.4692048756162137   F   F   F
  0.2598189243283926  0.9919653355447977  0.6366514481030734   T   T   T
  0.2402097751398387  0.4919534689009666  0.6366592836043807   T   T   T
  0.0203021258644966  0.0270580589798541  0.6312968673951644   T   T   T
  0.2418103775000020  0.5238970600000030  0.4595127489495425   F   F   F
  0.6967537625000020  0.5060743800000012  0.5276585322828780   F   F   F
  0.8032462374999980  0.0060743800000012  0.5276585322828780   F   F   F
  0.9471672625000025  0.6940883999999983  0.5354901389495410   F   F   F
  0.8028327374999975  0.1940883999999983  0.3688234722828767   F   F   F
  0.9633054500000000  0.6993249000000006  0.4211424772828778   F   F   F
  0.7864876553267237  0.1986421857880032  0.5927334171683469   T   T   T
  0.6474850899999964  0.8562214800000021  0.4661341472828795   F   F   F
  0.8525149099999965  0.3562214800000021  0.4661341472828795   F   F   F
  0.9467537625000020  0.5060743800000012  0.3609918656162137   F   F   F
  0.5532462374999980  0.0060743800000012  0.3609918656162137   F   F   F
  0.6971672625000025  0.6940883999999983  0.3688234722828767   F   F   F
  0.5528327374999975  0.1940883999999983  0.5354901389495410   F   F   F
  0.7135027236646252  0.6986667247100300  0.5927590535633342   T   T   T
  0.5366945500000000  0.1993249000000006  0.4211424772828778   F   F   F
  0.9024351597114304  0.9092548074295479  0.6175654144006799   T   T   T
  0.5976263347498048  0.4093308250028045  0.6175402536367613   T   T   T
  0.8677743557445439  0.4369418101665872  0.6125804338511855   T   T   T
  0.8853868225000028  0.9429900599999996  0.4442190256162135   F   F   F
  0.6146131774999972  0.4429900599999996  0.4442190256162135   F   F   F
  0.6322391670979997  0.9369237428016532  0.6125924610400162   T   T   T
  0.8765175974999977  0.1916705499999978  0.5290536289495478   F   F   F
  0.6234824025000023  0.6916705499999978  0.5290536289495478   F   F   F
  0.8709391699999998  0.4972009000000028  0.5473450139495455   F   F   F
  0.6290608300000002  0.9972009000000028  0.5473450139495455   F   F   F
  0.8636904724999965  0.8133133999999984  0.5709544156162139   F   F   F
  0.6363095274999964  0.3133133999999984  0.5709544156162139   F   F   F
  0.8634858074999983  0.7540413299999997  0.4692048756162137   F   F   F
  0.8895273857254722  0.2515940176180820  0.6364797665685842   T   T   T
  0.5106308399999975  0.9961775399999979  0.4691590372828784   F   F   F
  0.9893691600000025  0.4961775399999979  0.4691590372828784   F   F   F
  0.7581896224999980  0.0238970600000030  0.4595127489495425   F   F   F
  0.9797134595454935  0.5267725014215756  0.6313487558283413   T   T   T
  0.6265175974999977  0.1916705499999978  0.3623869622828764   F   F   F
  0.8734824025000023  0.6916705499999978  0.3623869622828764   F   F   F
  0.6209391699999998  0.4972009000000028  0.3806783472828741   F   F   F
  0.8790608300000002  0.9972009000000028  0.3806783472828812   F   F   F
  0.6136904724999965  0.8133133999999984  0.4042877489495424   F   F   F
  0.8863095275000035  0.3133133999999984  0.4042877489495424   F   F   F
  0.6103910681392577  0.7515969131390392  0.6364872807909236   T   T   T
  0.6365141925000017  0.2540413299999997  0.4692048756162137   F   F   F
  0.7598171776325202  0.9919020238076044  0.6366504540573175   T   T   T
  0.7402136364104805  0.4918811375244090  0.6366593687287008   T   T   T
  0.5203032004541726  0.0268580878555440  0.6313317533007350   T   T   T
  0.7418103775000020  0.5238970600000030  0.4595127489495425   F   F   F
 
  0.00000000E+00  0.00000000E+00  0.00000000E+00
  0.00000000E+00  0.00000000E+00  0.00000000E+00
  0.00000000E+00  0.00000000E+00  0.00000000E+00
  0.00000000E+00  0.00000000E+00  0.00000000E+00
  0.00000000E+00  0.00000000E+00  0.00000000E+00
  0.00000000E+00  0.00000000E+00  0.00000000E+00
  0.00000000E+00  0.00000000E+00  0.00000000E+00
  0.00000000E+00  0.00000000E+00  0.00000000E+00
  0.00000000E+00  0.00000000E+00  0.00000000E+00
  0.00000000E+00  0.00000000E+00  0.00000000E+00
  0.00000000E+00  0.00000000E+00  0.00000000E+00
  0.00000000E+00  0.00000000E+00  0.00000000E+00
  0.00000000E+00  0.00000000E+00  0.00000000E+00
  0.00000000E+00  0.00000000E+00  0.00000000E+00
  0.00000000E+00  0.00000000E+00  0.00000000E+00
  0.00000000E+00  0.00000000E+00  0.00000000E+00
  0.00000000E+00  0.00000000E+00  0.00000000E+00
  0.00000000E+00  0.00000000E+00  0.00000000E+00
  0.00000000E+00  0.00000000E+00  0.00000000E+00
  0.00000000E+00  0.00000000E+00  0.00000000E+00
  0.00000000E+00  0.00000000E+00  0.00000000E+00
  0.00000000E+00  0.00000000E+00  0.00000000E+00
  0.00000000E+00  0.00000000E+00  0.00000000E+00
  0.00000000E+00  0.00000000E+00  0.00000000E+00
  0.00000000E+00  0.00000000E+00  0.00000000E+00
  0.00000000E+00  0.00000000E+00  0.00000000E+00
  0.00000000E+00  0.00000000E+00  0.00000000E+00
  0.00000000E+00  0.00000000E+00  0.00000000E+00
  0.00000000E+00  0.00000000E+00  0.00000000E+00
  0.00000000E+00  0.00000000E+00  0.00000000E+00
  0.00000000E+00  0.00000000E+00  0.00000000E+00
  0.00000000E+00  0.00000000E+00  0.00000000E+00
  0.00000000E+00  0.00000000E+00  0.00000000E+00
  0.00000000E+00  0.00000000E+00  0.00000000E+00
  0.00000000E+00  0.00000000E+00  0.00000000E+00
  0.00000000E+00  0.00000000E+00  0.00000000E+00
  0.00000000E+00  0.00000000E+00  0.00000000E+00
  0.00000000E+00  0.00000000E+00  0.00000000E+00
  0.00000000E+00  0.00000000E+00  0.00000000E+00
  0.00000000E+00  0.00000000E+00  0.00000000E+00
  0.00000000E+00  0.00000000E+00  0.00000000E+00
  0.00000000E+00  0.00000000E+00  0.00000000E+00
  0.00000000E+00  0.00000000E+00  0.00000000E+00
  0.00000000E+00  0.00000000E+00  0.00000000E+00
  0.00000000E+00  0.00000000E+00  0.00000000E+00
  0.00000000E+00  0.00000000E+00  0.00000000E+00
  0.00000000E+00  0.00000000E+00  0.00000000E+00
  0.00000000E+00  0.00000000E+00  0.00000000E+00
  0.00000000E+00  0.00000000E+00  0.00000000E+00
  0.00000000E+00  0.00000000E+00  0.00000000E+00
  0.00000000E+00  0.00000000E+00  0.00000000E+00
  0.00000000E+00  0.00000000E+00  0.00000000E+00
  0.00000000E+00  0.00000000E+00  0.00000000E+00
  0.00000000E+00  0.00000000E+00  0.00000000E+00
  0.00000000E+00  0.00000000E+00  0.00000000E+00
  0.00000000E+00  0.00000000E+00  0.00000000E+00
  0.00000000E+00  0.00000000E+00  0.00000000E+00
  0.00000000E+00  0.00000000E+00  0.00000000E+00
  0.00000000E+00  0.00000000E+00  0.00000000E+00
  0.00000000E+00  0.00000000E+00  0.00000000E+00
  0.00000000E+00  0.00000000E+00  0.00000000E+00
  0.00000000E+00  0.00000000E+00  0.00000000E+00
  0.00000000E+00  0.00000000E+00  0.00000000E+00
  0.00000000E+00  0.00000000E+00  0.00000000E+00
  0.00000000E+00  0.00000000E+00  0.00000000E+00
  0.00000000E+00  0.00000000E+00  0.00000000E+00
  0.00000000E+00  0.00000000E+00  0.00000000E+00
  0.00000000E+00  0.00000000E+00  0.00000000E+00
  0.00000000E+00  0.00000000E+00  0.00000000E+00
  0.00000000E+00  0.00000000E+00  0.00000000E+00
  0.00000000E+00  0.00000000E+00  0.00000000E+00
  0.00000000E+00  0.00000000E+00  0.00000000E+00
  0.00000000E+00  0.00000000E+00  0.00000000E+00
  0.00000000E+00  0.00000000E+00  0.00000000E+00
  0.00000000E+00  0.00000000E+00  0.00000000E+00
  0.00000000E+00  0.00000000E+00  0.00000000E+00
  0.00000000E+00  0.00000000E+00  0.00000000E+00
  0.00000000E+00  0.00000000E+00  0.00000000E+00
  0.00000000E+00  0.00000000E+00  0.00000000E+00
  0.00000000E+00  0.00000000E+00  0.00000000E+00
  0.00000000E+00  0.00000000E+00  0.00000000E+00
  0.00000000E+00  0.00000000E+00  0.00000000E+00
  0.00000000E+00  0.00000000E+00  0.00000000E+00
  0.00000000E+00  0.00000000E+00  0.00000000E+00
  0.00000000E+00  0.00000000E+00  0.00000000E+00
  0.00000000E+00  0.00000000E+00  0.00000000E+00
  0.00000000E+00  0.00000000E+00  0.00000000E+00
  0.00000000E+00  0.00000000E+00  0.00000000E+00
