Cd Ge Se
 1.0000000000000000
    15.4276159042126828    0.0000000000000000    0.0000000000000009
    -0.0000000000000008   12.5648332814656172    4.5455312936084002
     0.0000000000000000    0.0000000000000000   40.0179154950146199
Cd Ge Se
32 8 48
Selective dynamics
Cartesian
  3.0354414755586849  6.3587402127210728 23.4161714863031136   F   F   F
  4.6783664765476551  0.0763235719882669 21.1434058394989144   F   F   F
  6.8987247707882462  8.7211050285992169 24.5841996716270899   F   F   F
  4.6719871573712650  2.4386883878664078 15.6417814423204540   F   F   F
  7.1476985289284123  8.7869007780776140 20.0320472846168798   F   F   F
  4.4206389208044525  2.4966929498506558 24.6236214908017246   T   T   T
  2.2753433201182380 10.7582801482097441 22.5456984469065951   F   F   F
  5.4384646319881025  4.4758635074769373 20.2729328001023994   F   F   F
  6.8923454516118570  6.3587402127210728 16.7465189038006734   F   F   F
  0.8214625004944834  0.0763235719882669 14.4737532569964760   F   F   F
  3.0418207947350755  8.7211050285992169 17.9145470891246532   F   F   F
  0.8150831813180938  2.4386883878664078 22.3114340248228906   F   F   F
  3.2929483878363066  8.7795195418759189 26.8974087247211706   T   T   T
  0.5661094231779265  2.5044841373448050 17.7592816378126805   F   F   F
  6.2066861124461870 11.4249549837880497 28.8461967467381015   T   T   T
  1.5080392659433475  5.1436569301523960 26.5726490443864414   T   T   T
  5.6742508999813204  5.4906175670829311 26.5013486239981866   T   T   T
  5.9455998720749896 11.8485128899792596 22.0631102556789287   F   F   F
  1.7682080800313498  5.5660962492464519 19.7903446088747295   F   F   F
  2.0397662560462781 11.7727259521580105 28.7745248783526719   T   T   T
  5.8087688754069484  2.4083085057168194 22.0428678987218234   F   F   F
  1.9050390766993921  8.6907251464496280 24.3156335455260226   F   F   F
  5.7227070385874521  6.2472464158946606 24.1636487650107270   F   F   F
  1.9911009135188880 12.5296630566274683 26.4364144118149227   F   F   F
  5.6108769177516242 10.2191472765819551 26.5453470668460341   F   F   F
  2.1029310343547150  3.9367306358491461 24.2725814200418348   F   F   F
  5.6077194247425890  9.4744035987845958 22.2041195244474814   F   F   F
  6.0117347030318573  3.1623006011571144 26.6133715314815262   T   T   T
  0.1640085162591383 12.5168047088405459 23.3029228897684462   F   F   F
  7.5497994358472020  6.2343880681077390 21.0301572429642469   F   F   F
  3.9832503263836685  0.3002625748171797 18.4973671903999701   F   F   F
  7.4008987605997882  6.6213576196829420 27.6592777463427097   T   T   T
  1.9518648993537773  2.4083085057168194 15.3732153162193832   F   F   F
  5.7619430527525628  8.6907251464496280 17.6459809630235824   F   F   F
  1.8658030625342807  6.2472464158946606 17.4939961825082868   F   F   F
  5.8480048895720591 12.5296630566274683 19.7667618293124860   F   F   F
  1.7539729416984535 10.2191472765819551 19.8756944843435974   F   F   F
  5.9598350104078870  3.9367306358491461 17.6029288375393982   F   F   F
  1.7014895328537658  9.4445060637976379 28.8872078653382864   T   T   T
  2.1060885273637511  3.1919869580517863 19.9313538776432821   F   F   F
  4.0083865691841858 12.4638790621134561 29.9864733248610449   T   T   T
  3.7058641472947187  6.1813133189793117 27.7139672982853078   T   T   T
  0.3132133998764780  0.3399800000019697 25.3861779455243841   T   T   T
  3.7305576257226725  6.5826792155499900 20.7701328372041694   F   F   F
 10.7492494276650259  6.3587402127210728 23.4161714863031136   F   F   F
 12.3921744286539965  0.0763235719882669 21.1434058394989144   F   F   F
 14.6125327228945885  8.7211050285992169 24.5841996716270899   F   F   F
 12.3857951094776055  2.4386883878664078 15.6417814423204540   F   F   F
 14.8615064810347537  8.7869007780776140 20.0320472846168798   F   F   F
 12.1336294597854604  2.4959059470922127 24.6228900710443668   T   T   T
  9.9891512722245785 10.7582801482097441 22.5456984469065951   F   F   F
 13.1522725840944439  4.4758635074769373 20.2729328001023994   F   F   F
 14.6061534037181993  6.3587402127210728 16.7465189038006734   F   F   F
  8.5352704526008250  0.0763235719882669 14.4737532569964760   F   F   F
 10.7556287468414169  8.7211050285992169 17.9145470891246532   F   F   F
  8.5288911334244357  2.4386883878664078 22.3114340248228906   F   F   F
 11.0076459673074609  8.7786309152891757 26.8967931753746221   T   T   T
  8.2799173752842670  2.5044841373448050 17.7592816378126805   F   F   F
 13.9224230224847787 11.4246350657234164 28.8467267471649080   T   T   T
  9.2199495467624644  5.1431735731249901 26.5732997592947022   T   T   T
 13.3876894519524203  5.4901009984449543 26.5003247073541424   T   T   T
 13.6594078241813310 11.8485128899792596 22.0631102556789287   F   F   F
  9.4820160321376914  5.5660962492464519 19.7903446088747295   F   F   F
  9.7539430295872958 11.7722906257495321 28.7734895314120465   T   T   T
 13.5225768275132907  2.4083085057168194 22.0428678987218234   F   F   F
  9.6188470288057335  8.6907251464496280 24.3156335455260226   F   F   F
 13.4365149906937944  6.2472464158946606 24.1636487650107270   F   F   F
  9.7049088656252298 12.5296630566274683 26.4364144118149227   F   F   F
 13.3246848698579647 10.2191472765819551 26.5453470668460341   F   F   F
  9.8167389864610559  3.9367306358491461 24.2725814200418348   F   F   F
 13.3215273768489304  9.4744035987845958 22.2041195244474814   F   F   F
 13.7232868432510458  3.1612368859853470 26.6142219931959616   T   T   T
  7.8778164683654799 12.5168047088405459 23.3029228897684462   F   F   F
 15.2636073879535434  6.2343880681077390 21.0301572429642469   F   F   F
 11.6970582784900099  0.3002625748171797 18.4973671903999701   F   F   F
 15.1146429500553054  6.6188086576226963 27.6597220484452606   T   T   T
  9.6656728514601191  2.4083085057168194 15.3732153162193832   F   F   F
 13.4757510048589033  8.6907251464496280 17.6459809630235824   F   F   F
  9.5796110146406228  6.2472464158946606 17.4939961825082868   F   F   F
 13.5618128416783996 12.5296630566274683 19.7667618293124860   F   F   F
  9.4677808938047949 10.2191472765819551 19.8756944843435974   F   F   F
 13.6736429625142293  3.9367306358491461 17.6029288375393982   F   F   F
  9.4168789506145600  9.4436899084561841 28.8873015051956550   T   T   T
  9.8198964794700920  3.1919869580517863 19.9313538776432821   F   F   F
 11.7221675739374920 12.4630835606909116 29.9861457597394931   T   T   T
 11.4197316696014521  6.1804044872919004 27.7136419202474933   T   T   T
  8.0270379303395547  0.3374673961638566 25.3866650317420017   T   T   T
 11.4443655778290143  6.5826792155499900 20.7701328372041694   F   F   F
