Au Pd Tl
 1.0000000000000000
     9.3848339692973219    0.0000000000000000    0.0000000000000006
    -0.0000000000000008   13.2721594799999991    0.0000000000000008
     0.0000000000000000    0.0000000000000000   37.5393358771892878
Au Pd Tl
16 32 16
Selective dynamics
Cartesian
  2.3462084923243296  0.0000000000000000 15.2503552001081442   F   F   F
  2.3462084923243305  0.0000000000000000 19.9427721847568087   F   F   F
 -0.0000000000000002  3.3180398699999998 17.5965636924324755   F   F   F
  0.0003821455307500  3.3175625079696758 22.3570005802296627   T   T   T
 -0.0000000000000003  4.9770598049999997 19.9427721847568087   F   F   F
 -0.0000000000000003  4.9770598049999997 15.2503552001081442   F   F   F
  2.3467876800654257  4.9658977999115912 22.1707773372157071   T   T   T
  2.3462084923243300  4.9770598049999997 17.5965636924324755   F   F   F
  2.3465048210943218  1.6706720310946217 22.1711363306360845   T   T   T
  2.3462084923243305  1.6590199350000014 17.5965636924324755   F   F   F
 -0.0000000000000001  1.6590199349999992 15.2503552001081442   F   F   F
 -0.0000000000000001  1.6590199350000006 19.9427721847568087   F   F   F
  0.0000000000000000  0.0000000000000000 17.5965636924324755   F   F   F
 -0.0007665874065310  0.0009888946406136 22.5713254211562280   T   T   T
  2.3462084923243296  3.3180398699999998 15.2503552001081442   F   F   F
  2.3462084923243305  3.3180398699999998 19.9427721847568087   F   F   F
  2.3462084923243292  6.6360797399999996 15.2503552001081442   F   F   F
  2.3462084923243300  6.6360797399999996 19.9427721847568087   F   F   F
 -0.0000000000000006  9.9541196099999993 17.5965636924324755   F   F   F
  0.0001200798854549  9.9538050241434135 22.3574830999107625   T   T   T
 -0.0000000000000007 11.6131395449999992 19.9427721847568087   F   F   F
 -0.0000000000000007 11.6131395449999992 15.2503552001081442   F   F   F
  2.3467807321384484 11.6015159346796146 22.1707587752583031   T   T   T
  2.3462084923243296 11.6131395449999992 17.5965636924324755   F   F   F
  2.3466644805384012  8.3068389004687724 22.1709460528193567   T   T   T
  2.3462084923243300  8.2950996750000012 17.5965636924324755   F   F   F
 -0.0000000000000005  8.2950996749999995 15.2503552001081442   F   F   F
 -0.0000000000000005  8.2950996749999995 19.9427721847568087   F   F   F
 -0.0000000000000004  6.6360797399999996 17.5965636924324755   F   F   F
 -0.0006524489650989  6.6361026263480056 22.5713460890668038   T   T   T
  2.3462084923243292  9.9541196099999993 15.2503552001081442   F   F   F
  2.3462084923243300  9.9541196099999993 19.9427721847568087   F   F   F
  7.0386254769729906  0.0000000000000000 15.2503552001081442   F   F   F
  7.0386254769729915  0.0000000000000000 19.9427721847568087   F   F   F
  4.6924169846486610  3.3180398699999998 17.5965636924324755   F   F   F
  4.6929793161123587  3.3175339399116339 22.3564371861842055   T   T   T
  4.6924169846486610  4.9770598049999997 19.9427721847568087   F   F   F
  4.6924169846486610  4.9770598049999997 15.2503552001081442   F   F   F
  7.0380899610792742  4.9649455371236861 22.1703495903032426   T   T   T
  7.0386254769729906  4.9770598049999997 17.5965636924324755   F   F   F
  7.0377933018846290  1.6716781386755279 22.1707402635923181   T   T   T
  7.0386254769729915  1.6590199350000014 17.5965636924324755   F   F   F
  4.6924169846486610  1.6590199349999992 15.2503552001081442   F   F   F
  4.6924169846486610  1.6590199350000006 19.9427721847568087   F   F   F
  4.6924169846486610  0.0000000000000000 17.5965636924324755   F   F   F
  4.6930779670172331  0.0008592858889642 22.5709505107345585   T   T   T
  7.0386254769729906  3.3180398699999998 15.2503552001081442   F   F   F
  7.0386254769729915  3.3180398699999998 19.9427721847568087   F   F   F
  7.0386254769729906  6.6360797399999996 15.2503552001081442   F   F   F
  7.0386254769729915  6.6360797399999996 19.9427721847568087   F   F   F
  4.6924169846486610  9.9541196099999993 17.5965636924324755   F   F   F
  4.6929972780242668  9.9536420999830639 22.3569154246336375   T   T   T
  4.6924169846486610 11.6131395449999992 19.9427721847568087   F   F   F
  4.6924169846486610 11.6131395449999992 15.2503552001081442   F   F   F
  7.0380846612058097 11.6005031853353877 22.1704350871125762   T   T   T
  7.0386254769729906 11.6131395449999992 17.5965636924324755   F   F   F
  7.0380406603991998  8.3077420271433020 22.1705214724036459   T   T   T
  7.0386254769729915  8.2950996750000012 17.5965636924324755   F   F   F
  4.6924169846486610  8.2950996749999995 15.2503552001081442   F   F   F
  4.6924169846486610  8.2950996749999995 19.9427721847568087   F   F   F
  4.6924169846486610  6.6360797399999996 17.5965636924324755   F   F   F
  4.6929270591237344  6.6361803959982666 22.5710832330490057   T   T   T
  7.0386254769729906  9.9541196099999993 15.2503552001081442   F   F   F
  7.0386254769729915  9.9541196099999993 19.9427721847568087   F   F   F
