Co Te H O                               
   1.00000000000000     
    11.4398164697169697    0.0000000000000000    0.0000000000000007
    -5.7199082348584840    9.9071716774065131    0.0000000000000007
     0.0000000000000000    0.0000000000000000   33.6134573712687796
   Co   Te   H    O 
    18    36     1     1
Selective dynamics
Direct
  0.0000000000000000  0.0000000000000000  0.4166666666666643   F   F   F
  0.1111111111111143  0.2222222222222214  0.3768451783333333   F   F   F
  0.2222222222222214  0.1111111111111143  0.4564881550000024   F   F   F
  0.0006655032771121  0.0003271792001556  0.5828860930866355   T   T   T
  0.1111111111111143  0.2222222222222214  0.5435118449999976   F   F   F
  0.2207072353601092  0.1099280329515011  0.6240791115710920   T   T   T
  0.0000000000000000  0.3333333333333357  0.4166666666666643   F   F   F
  0.1111111111111143  0.5555555555555571  0.3768451783333333   F   F   F
  0.2222222222222214  0.4444444444444429  0.4564881550000024   F   F   F
  0.0003019944759117  0.3334403553926322  0.5830162164641592   T   T   T
  0.1111111111111143  0.5555555555555571  0.5435118449999976   F   F   F
  0.2208984196341248  0.4446423447420500  0.6238294802931961   T   T   T
  0.0000000000000000  0.6666666666666643  0.4166666666666643   F   F   F
  0.1111111111111143  0.8888888888888857  0.3768451783333333   F   F   F
  0.2222222222222214  0.7777777777777786  0.4564881550000024   F   F   F
  0.9990006646588441  0.6664939133806769  0.5830389717345881   T   T   T
  0.1111111111111143  0.8888888888888857  0.5435118449999976   F   F   F
  0.2220336540532131  0.7778520223785108  0.6231566346399333   T   T   T
  0.3333333333333357  0.0000000000000000  0.4166666666666643   F   F   F
  0.4444444444444429  0.2222222222222214  0.3768451783333333   F   F   F
  0.5555555555555571  0.1111111111111143  0.4564881550000024   F   F   F
  0.3333358236941706  0.0006758197539440  0.5829698090361148   T   T   T
  0.4444444444444429  0.2222222222222214  0.5435118449999976   F   F   F
  0.5548503843529957  0.1085623581618904  0.6238041419957696   T   T   T
  0.3333333333333357  0.3333333333333357  0.4166666666666643   F   F   F
  0.4444444444444429  0.5555555555555571  0.3768451783333333   F   F   F
  0.5555555555555571  0.4444444444444429  0.4564881550000024   F   F   F
  0.3282188950132578  0.3312313920491192  0.5843264595849789   T   T   T
  0.4444444444444429  0.5555555555555571  0.5435118449999976   F   F   F
  0.5553279557504851  0.4429911652046670  0.6172288212160453   T   T   T
  0.3333333333333357  0.6666666666666643  0.4166666666666643   F   F   F
  0.4444444444444429  0.8888888888888857  0.3768451783333333   F   F   F
  0.5555555555555571  0.7777777777777786  0.4564881550000024   F   F   F
  0.3343323278377923  0.6664102788150856  0.5831709418141173   T   T   T
  0.4444444444444429  0.8888888888888857  0.5435118449999976   F   F   F
  0.5561196525599073  0.7794893915871910  0.6237973086476245   T   T   T
  0.6666666666666643  0.0000000000000000  0.4166666666666643   F   F   F
  0.7777777777777786  0.2222222222222214  0.3768451783333333   F   F   F
  0.8888888888888857  0.1111111111111143  0.4564881550000024   F   F   F
  0.6663902280664828  0.9997948024410874  0.5830081512889080   T   T   T
  0.7777777777777786  0.2222222222222214  0.5435118449999976   F   F   F
  0.8889695115477210  0.1112357044305199  0.6230702738063201   T   T   T
  0.6666666666666643  0.3333333333333357  0.4166666666666643   F   F   F
  0.7777777777777786  0.5555555555555571  0.3768451783333333   F   F   F
  0.8888888888888857  0.4444444444444429  0.4564881550000024   F   F   F
  0.6692917907976508  0.3305129342137860  0.5840265116578323   T   T   T
  0.7777777777777786  0.5555555555555571  0.5435118449999976   F   F   F
  0.8905222331307527  0.4443169183549074  0.6235434511237585   T   T   T
  0.6666666666666643  0.6666666666666643  0.4166666666666643   F   F   F
  0.7777777777777786  0.8888888888888857  0.3768451783333333   F   F   F
  0.8888888888888857  0.7777777777777786  0.4564881550000024   F   F   F
  0.6688890407598223  0.6715975510884959  0.5842509193302945   T   T   T
  0.7777777777777786  0.8888888888888857  0.5435118449999976   F   F   F
  0.8902438516718547  0.7797722339049429  0.6236447332797894   T   T   T
  0.6050181895194413  0.3982177741157003  0.6866723503014924   T   T   T
  0.5507120747931680  0.4379134874888777  0.6779855337953862   T   T   T
 
  0.00000000E+00  0.00000000E+00  0.00000000E+00
  0.00000000E+00  0.00000000E+00  0.00000000E+00
  0.00000000E+00  0.00000000E+00  0.00000000E+00
  0.00000000E+00  0.00000000E+00  0.00000000E+00
  0.00000000E+00  0.00000000E+00  0.00000000E+00
  0.00000000E+00  0.00000000E+00  0.00000000E+00
  0.00000000E+00  0.00000000E+00  0.00000000E+00
  0.00000000E+00  0.00000000E+00  0.00000000E+00
  0.00000000E+00  0.00000000E+00  0.00000000E+00
  0.00000000E+00  0.00000000E+00  0.00000000E+00
  0.00000000E+00  0.00000000E+00  0.00000000E+00
  0.00000000E+00  0.00000000E+00  0.00000000E+00
  0.00000000E+00  0.00000000E+00  0.00000000E+00
  0.00000000E+00  0.00000000E+00  0.00000000E+00
  0.00000000E+00  0.00000000E+00  0.00000000E+00
  0.00000000E+00  0.00000000E+00  0.00000000E+00
  0.00000000E+00  0.00000000E+00  0.00000000E+00
  0.00000000E+00  0.00000000E+00  0.00000000E+00
  0.00000000E+00  0.00000000E+00  0.00000000E+00
  0.00000000E+00  0.00000000E+00  0.00000000E+00
  0.00000000E+00  0.00000000E+00  0.00000000E+00
  0.00000000E+00  0.00000000E+00  0.00000000E+00
  0.00000000E+00  0.00000000E+00  0.00000000E+00
  0.00000000E+00  0.00000000E+00  0.00000000E+00
  0.00000000E+00  0.00000000E+00  0.00000000E+00
  0.00000000E+00  0.00000000E+00  0.00000000E+00
  0.00000000E+00  0.00000000E+00  0.00000000E+00
  0.00000000E+00  0.00000000E+00  0.00000000E+00
  0.00000000E+00  0.00000000E+00  0.00000000E+00
  0.00000000E+00  0.00000000E+00  0.00000000E+00
  0.00000000E+00  0.00000000E+00  0.00000000E+00
  0.00000000E+00  0.00000000E+00  0.00000000E+00
  0.00000000E+00  0.00000000E+00  0.00000000E+00
  0.00000000E+00  0.00000000E+00  0.00000000E+00
  0.00000000E+00  0.00000000E+00  0.00000000E+00
  0.00000000E+00  0.00000000E+00  0.00000000E+00
  0.00000000E+00  0.00000000E+00  0.00000000E+00
  0.00000000E+00  0.00000000E+00  0.00000000E+00
  0.00000000E+00  0.00000000E+00  0.00000000E+00
  0.00000000E+00  0.00000000E+00  0.00000000E+00
  0.00000000E+00  0.00000000E+00  0.00000000E+00
  0.00000000E+00  0.00000000E+00  0.00000000E+00
  0.00000000E+00  0.00000000E+00  0.00000000E+00
  0.00000000E+00  0.00000000E+00  0.00000000E+00
  0.00000000E+00  0.00000000E+00  0.00000000E+00
  0.00000000E+00  0.00000000E+00  0.00000000E+00
  0.00000000E+00  0.00000000E+00  0.00000000E+00
  0.00000000E+00  0.00000000E+00  0.00000000E+00
  0.00000000E+00  0.00000000E+00  0.00000000E+00
  0.00000000E+00  0.00000000E+00  0.00000000E+00
  0.00000000E+00  0.00000000E+00  0.00000000E+00
  0.00000000E+00  0.00000000E+00  0.00000000E+00
  0.00000000E+00  0.00000000E+00  0.00000000E+00
  0.00000000E+00  0.00000000E+00  0.00000000E+00
  0.00000000E+00  0.00000000E+00  0.00000000E+00
  0.00000000E+00  0.00000000E+00  0.00000000E+00
