Co Te H O
 1.0000000000000000
    11.4398164697169697    0.0000000000000000    0.0000000000000007
    -5.7199082348584840    9.9071716774065131    0.0000000000000007
     0.0000000000000000    0.0000000000000000   33.6134573712687796
Co Te H O
18 36 1 1
Selective dynamics
Cartesian
  0.0000000000000000  0.0000000000000000 14.0056072380286594   F   F   F
  0.0000000000000007  2.2015937060903359 12.6670693374756826   F   F   F
  1.9066360782861618  1.1007968530451677 15.3441451385816361   F   F   F
  0.0057418003489147  0.0032414205052191 19.5928168422730842   T   T   T
  0.0000000000000007  2.2015937060903359 18.2693122326871453   F   F   F
  1.8960720051371633  1.0890758946101329 20.9774566130941622   T   T   T
 -1.9066360782861613  3.3023905591355041 14.0056072380286594   F   F   F
 -1.9066360782861607  5.5039842652258404 12.6670693374756826   F   F   F
  0.0000000000000004  4.4031874121806718 15.3441451385816361   F   F   F
 -1.9037934732651740  3.3034508450502225 19.5971907388763675   T   T   T
 -1.9066360782861607  5.5039842652258404 18.2693122326871453   F   F   F
 -0.0162760301918747  4.4051480444040303 20.9690656427761297   T   T   T
 -3.8132721565723227  6.6047811182710081 14.0056072380286594   F   F   F
 -3.8132721565723218  8.8063748243613436 12.6670693374756826   F   F   F
 -1.9066360782861609  7.7055779713161758 15.3441451385816361   F   F   F
 -3.8237162365237349  6.6030696218088867 19.5979556221888807   T   T   T
 -3.8132721565723218  8.8063748243613436 18.2693122326871453   F   F   F
 -1.9092179358348091  7.7063135253217627 20.9464489740926894   T   T   T
  3.8132721565723235  0.0000000000000000 14.0056072380286594   F   F   F
  3.8132721565723244  2.2015937060903359 12.6670693374756826   F   F   F
  5.7199082348584849  1.1007968530451677 15.3441451385816361   F   F   F
  3.8094350188673465  0.0066954623252968 19.5956308247720763   T   T   T
  3.8132721565723244  2.2015937060903359 18.2693122326871453   F   F   F
  5.7264198387043503  1.0755459200139654 20.9682139349957453   T   T   T
  1.9066360782861622  3.3023905591355041 14.0056072380286594   F   F   F
  1.9066360782861629  5.5039842652258404 12.6670693374756826   F   F   F
  3.8132721565723240  4.4031874121806718 15.3441451385816361   F   F   F
  1.8601507538195321  3.2815662659769922 19.6412325401640437   T   T   T
  1.9066360782861629  5.5039842652258404 18.2693122326871453   F   F   F
  3.8189810804649222  4.3887895252569828 20.7471946702640508   T   T   T
  0.0000000000000009  6.6047811182710081 14.0056072380286594   F   F   F
  0.0000000000000016  8.8063748243613436 12.6670693374756826   F   F   F
  1.9066360782861627  7.7055779713161758 15.3441451385816361   F   F   F
  0.0128948287688226  6.6022410398094014 19.6023915928314700   T   T   T
  0.0000000000000016  8.8063748243613436 18.2693122326871453   F   F   F
  1.9032989705636898  7.7225352231714499 20.9679842425390035   T   T   T
  7.6265443131446471  0.0000000000000000 14.0056072380286594   F   F   F
  7.6265443131446480  2.2015937060903359 12.6670693374756826   F   F   F
  9.5331803914308093  1.1007968530451677 15.3441451385816361   F   F   F
  7.6245556175003610 -0.0020329274439064 19.5969196404518762   T   T   T
  7.6265443131446480  2.2015937060903359 18.2693122326871453   F   F   F
  9.5333900374974601  1.1020312204503995 20.9435460878936084   T   T   T
  5.7199082348584858  3.3023905591355041 14.0056072380286594   F   F   F
  5.7199082348584867  5.5039842652258404 12.6670693374756826   F   F   F
  7.6265443131446471  4.4031874121806718 15.3441451385816361   F   F   F
  5.7660715972766416  3.2744483808593694 19.6311502533014455   T   T   T
  5.7199082348584867  5.5039842652258404 18.2693122326871453   F   F   F
  7.6459589090331672  4.4019239893182780 20.9594512134822963   T   T   T
  3.8132721565723244  6.6047811182710081 14.0056072380286611   F   F   F
  3.8132721565723253  8.8063748243613436 12.6670693374756844   F   F   F
  5.7199082348584867  7.7055779713161758 15.3441451385816379   F   F   F
  3.8104915019155072  6.6536322367595364 19.6386933710334297   T   T   T
  3.8132721565723253  8.8063748243613436 18.2693122326871453   F   F   F
  5.7240006543930591  7.7253373905710863 20.9628556569164886   T   T   T
  4.6435279235113853  3.9452118531589586 23.0814317748882232   T   T   T
  3.7952201000476551  4.3384841004041377 22.7894378385681122   T   T   T
