Tl P Pd                                 
   1.00000000000000     
     8.0763064799999995    0.0000000000000000    0.0000000000000005
    -0.0000000000000005    8.0763064799999995    0.0000000000000005
     0.0000000000000000    0.0000000000000000   28.5967706799999988
   Tl   P    Pd
     4     4    20
Selective dynamics
Direct
  0.2500269792967913  0.2500094587622215  0.5792033242335961   T   T   T
  0.0000000000000000  0.0000000000000000  0.4493777379561052   F   F   F
  0.0000000000000000  0.2500000000000000  0.4001276954561064   F   F   F
  0.0000000000000000  0.2500000000000000  0.4986277804561041   F   F   F
  0.2500000000000000  0.0000000000000000  0.4001276954561064   F   F   F
  0.2500000000000000  0.0000000000000000  0.4986277804561041   F   F   F
  0.0000158649461000  0.0000151226984926  0.5701930470831584   T   T   T
  0.2499525670863463  0.7500069225571409  0.5791834051301876   T   T   T
  0.0000000000000000  0.5000000000000000  0.4493777379561052   F   F   F
  0.0000000000000000  0.7500000000000000  0.4001276954561064   F   F   F
  0.0000000000000000  0.7500000000000000  0.4986277804561041   F   F   F
  0.2500000000000000  0.5000000000000000  0.4001276954561064   F   F   F
  0.2500000000000000  0.5000000000000000  0.4986277804561041   F   F   F
  0.0000260941334105  0.4999804732148689  0.5702115901140274   T   T   T
  0.7499713100584273  0.2499217630820709  0.5792343559376363   T   T   T
  0.5000000000000000  0.0000000000000000  0.4493777379561052   F   F   F
  0.5000000000000000  0.2500000000000000  0.4001276954561064   F   F   F
  0.5000000000000000  0.2500000000000000  0.4986277804561041   F   F   F
  0.7500000000000000  0.0000000000000000  0.4001276954561064   F   F   F
  0.7500000000000000  0.0000000000000000  0.4986277804561041   F   F   F
  0.4999785514096544  0.0000234936693886  0.5702101094410850   T   T   T
  0.7500701533936009  0.7500951870960932  0.5792567157074160   T   T   T
  0.5000000000000000  0.5000000000000000  0.4493777379561052   F   F   F
  0.5000000000000000  0.7500000000000000  0.4001276954561064   F   F   F
  0.5000000000000000  0.7500000000000000  0.4986277804561041   F   F   F
  0.7500000000000000  0.5000000000000000  0.4001276954561064   F   F   F
  0.7500000000000000  0.5000000000000000  0.4986277804561041   F   F   F
  0.4999699070475359  0.4999725446821088  0.5702202142230561   T   T   T
 
  0.00000000E+00  0.00000000E+00  0.00000000E+00
  0.00000000E+00  0.00000000E+00  0.00000000E+00
  0.00000000E+00  0.00000000E+00  0.00000000E+00
  0.00000000E+00  0.00000000E+00  0.00000000E+00
  0.00000000E+00  0.00000000E+00  0.00000000E+00
  0.00000000E+00  0.00000000E+00  0.00000000E+00
  0.00000000E+00  0.00000000E+00  0.00000000E+00
  0.00000000E+00  0.00000000E+00  0.00000000E+00
  0.00000000E+00  0.00000000E+00  0.00000000E+00
  0.00000000E+00  0.00000000E+00  0.00000000E+00
  0.00000000E+00  0.00000000E+00  0.00000000E+00
  0.00000000E+00  0.00000000E+00  0.00000000E+00
  0.00000000E+00  0.00000000E+00  0.00000000E+00
  0.00000000E+00  0.00000000E+00  0.00000000E+00
  0.00000000E+00  0.00000000E+00  0.00000000E+00
  0.00000000E+00  0.00000000E+00  0.00000000E+00
  0.00000000E+00  0.00000000E+00  0.00000000E+00
  0.00000000E+00  0.00000000E+00  0.00000000E+00
  0.00000000E+00  0.00000000E+00  0.00000000E+00
  0.00000000E+00  0.00000000E+00  0.00000000E+00
  0.00000000E+00  0.00000000E+00  0.00000000E+00
  0.00000000E+00  0.00000000E+00  0.00000000E+00
  0.00000000E+00  0.00000000E+00  0.00000000E+00
  0.00000000E+00  0.00000000E+00  0.00000000E+00
  0.00000000E+00  0.00000000E+00  0.00000000E+00
  0.00000000E+00  0.00000000E+00  0.00000000E+00
  0.00000000E+00  0.00000000E+00  0.00000000E+00
  0.00000000E+00  0.00000000E+00  0.00000000E+00
