Tl P Pd
 1.0000000000000000
     8.0763064799999995    0.0000000000000000    0.0000000000000005
    -0.0000000000000005    8.0763064799999995    0.0000000000000005
     0.0000000000000000    0.0000000000000000   28.5967706799999988
Tl P Pd
4 4 20
Selective dynamics
Cartesian
  2.0192945130694753  2.0191530118626488 16.5633446402019011   T   T   T
  0.0000000000000000  0.0000000000000000 12.8507521210279325   F   F   F
 -0.0000000000000001  2.0190766199999999 11.4423599496751791   F   F   F
 -0.0000000000000001  2.0190766199999999 14.2591442923806859   F   F   F
  2.0190766199999999  0.0000000000000000 11.4423599496751791   F   F   F
  2.0190766199999999  0.0000000000000000 14.2591442923806859   F   F   F
  0.0001281301670133  0.0001221355478265 16.3056798107675398   T   T   T
  2.0186935372520689  6.0572857686930703 16.5627750181695568   T   T   T
 -0.0000000000000002  4.0381532399999998 12.8507521210279325   F   F   F
 -0.0000000000000004  6.0572298599999996 11.4423599496751791   F   F   F
 -0.0000000000000004  6.0572298599999996 14.2591442923806859   F   F   F
  2.0190766199999994  4.0381532399999998 11.4423599496751791   F   F   F
  2.0190766199999994  4.0381532399999998 14.2591442923806859   F   F   F
  0.0002107442187478  4.0379955356987267 16.3062100815689313   T   T   T
  6.0569981512389788  2.0184447546727498 16.5642320467261719   T   T   T
  4.0381532399999998  0.0000000000000000 12.8507521210279325   F   F   F
  4.0381532399999998  2.0190766199999999 11.4423599496751791   F   F   F
  4.0381532399999998  2.0190766199999999 14.2591442923806859   F   F   F
  6.0572298599999996  0.0000000000000000 11.4423599496751791   F   F   F
  6.0572298599999996  0.0000000000000000 14.2591442923806859   F   F   F
  4.0379800146108238  0.0001897420743262 16.3061677391044917   T   T   T
  6.0577964403073494  6.0579986201610083 16.5648714639349031   T   T   T
  4.0381532399999998  4.0381532399999998 12.8507521210279325   F   F   F
  4.0381532399999998  6.0572298599999996 11.4423599496751791   F   F   F
  4.0381532399999998  6.0572298599999996 14.2591442923806859   F   F   F
  6.0572298599999996  4.0381532399999998 11.4423599496751791   F   F   F
  6.0572298599999996  4.0381532399999998 14.2591442923806859   F   F   F
  4.0379102000930089  4.0379315024382123 16.3064567032372700   T   T   T
