Bi Te Cl O                              
   1.00000000000000     
    10.7062624506201356    0.0000000000000005    3.9190776883744651
    -3.4325506011789662   15.3044456862329064    4.8970458856059018
     0.0000000000000000    0.0000000000000049   39.8425094802109641
   Bi   Te   Cl   O 
    12     8    40     1
Selective dynamics
Direct
  0.9135835200000031  0.0353517599999975  0.6050572649999992   F   F   F
  0.4135835200000031  0.0353517599999975  0.4383905983333349   F   F   F
  0.1292838150000009  0.2685826399999982  0.4771093366666648   F   F   F
  0.6286237888631945  0.2578244666917655  0.6409105410720670   T   T   T
  0.8740690799999982  0.1591029499999976  0.3866057083333345   F   F   F
  0.3740690799999982  0.1591029499999976  0.5532723749999988   F   F   F
  0.6259309200000018  0.8408970500000024  0.4627794083333328   F   F   F
  0.1574870534476531  0.8449458835044297  0.6209832426604649   T   T   T
  0.3707161849999991  0.7314173600000018  0.3722757800000025   F   F   F
  0.8707161849999991  0.7314173600000018  0.5389424466666668   F   F   F
  0.5864164799999969  0.9646482400000025  0.5776611849999966   F   F   F
  0.0864164799999969  0.9646482400000025  0.4109945183333323   F   F   F
  0.8929497949999998  0.5461119900000000  0.4345805433333325   F   F   F
  0.4234948788899686  0.5267044879314895  0.5944325737169649   T   T   T
  0.3370404249999979  0.5777310900000003  0.5371784266666637   F   F   F
  0.8370404249999979  0.5777310900000003  0.3705117599999994   F   F   F
  0.1918852363308048  0.3865982845889562  0.6430463258133372   T   T   T
  0.6629595750000021  0.4222689099999997  0.4788733566666679   F   F   F
  0.6070502050000002  0.4538880100000000  0.4148045733333348   F   F   F
  0.1070502050000002  0.4538880100000000  0.5814712399999991   F   F   F
  0.8225024099999985  0.0999021700000000  0.5501254249999974   F   F   F
  0.3225024099999985  0.0999021700000000  0.3834587583333331   F   F   F
  0.0846639800000020  0.1883425700000032  0.5625435816666666   F   F   F
  0.5846639800000020  0.1883425700000032  0.3958769150000023   F   F   F
  0.0450863200000029  0.3903393499999979  0.4985711416666661   F   F   F
  0.4372137692064939  0.3167973463305387  0.6711236344529112   T   T   T
  0.0908779286929260  0.9631876993012654  0.6497794140940556   T   T   T
  0.6213844649999984  0.0193211699999978  0.4620596399999997   F   F   F
  0.3989867700000005  0.8017319900000004  0.5146229249999976   F   F   F
  0.8989867700000005  0.8017319900000004  0.3479562583333333   F   F   F
  0.2388690350000005  0.9004354799999987  0.3640064933333349   F   F   F
  0.7388690350000005  0.9004354799999987  0.5306731599999992   F   F   F
  0.1477529450000006  0.6848642799999993  0.3720616766666680   F   F   F
  0.6477529450000006  0.6848642799999993  0.5387283433333323   F   F   F
  0.2948427899999970  0.6424868799999999  0.4427663683333307   F   F   F
  0.7948427899999970  0.6424868799999999  0.6094330350000021   F   F   F
  0.9026423950000009  0.3126827399999996  0.3937445933333308   F   F   F
  0.4026423950000009  0.3126827399999996  0.5604112600000022   F   F   F
  0.9684431949999990  0.1039939500000031  0.4392387400000004   F   F   F
  0.4684431949999990  0.1039939500000031  0.6059054066666647   F   F   F
  0.5315568050000010  0.8960060499999969  0.4101463766666669   F   F   F
  0.0315568050000010  0.8960060499999969  0.5768130433333312   F   F   F
  0.5973576049999991  0.6873172600000004  0.4556405233333365   F   F   F
  0.9982168695180320  0.7163541434588012  0.6732541426533345   T   T   T
  0.2051572100000030  0.3575131200000001  0.4066187483333366   F   F   F
  0.7051572100000030  0.3575131200000001  0.5732854150000009   F   F   F
  0.3522470549999994  0.3151357200000007  0.4773234399999993   F   F   F
  0.7758806366205704  0.3386780947386114  0.6596704989601818   T   T   T
  0.2611309649999995  0.0995645200000013  0.4853786233333324   F   F   F
  0.8028688970606908  0.1071528782609406  0.6525845703937421   T   T   T
  0.1010132299999995  0.1982680099999996  0.3347621916666697   F   F   F
  0.6010132299999995  0.1982680099999996  0.5014288583333339   F   F   F
  0.3786155350000016  0.9806788300000022  0.5539921433333319   F   F   F
  0.8786155350000016  0.9806788300000022  0.3873254766666676   F   F   F
  0.4549136799999971  0.6096606500000021  0.3508139750000012   F   F   F
  0.9549136799999971  0.6096606500000021  0.5174806416666655   F   F   F
  0.4152668865100111  0.8209813355661026  0.6271376262428348   T   T   T
  0.9153360199999980  0.8116574299999968  0.4535082016666649   F   F   F
  0.6822372723182539  0.9152918830794761  0.6336017855120630   T   T   T
  0.1774975900000015  0.9000978300000000  0.4659263583333342   F   F   F
  0.1109979675680393  0.4352506487815617  0.6779784146621211   T   T   T
 
  0.00000000E+00  0.00000000E+00  0.00000000E+00
  0.00000000E+00  0.00000000E+00  0.00000000E+00
  0.00000000E+00  0.00000000E+00  0.00000000E+00
  0.00000000E+00  0.00000000E+00  0.00000000E+00
  0.00000000E+00  0.00000000E+00  0.00000000E+00
  0.00000000E+00  0.00000000E+00  0.00000000E+00
  0.00000000E+00  0.00000000E+00  0.00000000E+00
  0.00000000E+00  0.00000000E+00  0.00000000E+00
  0.00000000E+00  0.00000000E+00  0.00000000E+00
  0.00000000E+00  0.00000000E+00  0.00000000E+00
  0.00000000E+00  0.00000000E+00  0.00000000E+00
  0.00000000E+00  0.00000000E+00  0.00000000E+00
  0.00000000E+00  0.00000000E+00  0.00000000E+00
  0.00000000E+00  0.00000000E+00  0.00000000E+00
  0.00000000E+00  0.00000000E+00  0.00000000E+00
  0.00000000E+00  0.00000000E+00  0.00000000E+00
  0.00000000E+00  0.00000000E+00  0.00000000E+00
  0.00000000E+00  0.00000000E+00  0.00000000E+00
  0.00000000E+00  0.00000000E+00  0.00000000E+00
  0.00000000E+00  0.00000000E+00  0.00000000E+00
  0.00000000E+00  0.00000000E+00  0.00000000E+00
  0.00000000E+00  0.00000000E+00  0.00000000E+00
  0.00000000E+00  0.00000000E+00  0.00000000E+00
  0.00000000E+00  0.00000000E+00  0.00000000E+00
  0.00000000E+00  0.00000000E+00  0.00000000E+00
  0.00000000E+00  0.00000000E+00  0.00000000E+00
  0.00000000E+00  0.00000000E+00  0.00000000E+00
  0.00000000E+00  0.00000000E+00  0.00000000E+00
  0.00000000E+00  0.00000000E+00  0.00000000E+00
  0.00000000E+00  0.00000000E+00  0.00000000E+00
  0.00000000E+00  0.00000000E+00  0.00000000E+00
  0.00000000E+00  0.00000000E+00  0.00000000E+00
  0.00000000E+00  0.00000000E+00  0.00000000E+00
  0.00000000E+00  0.00000000E+00  0.00000000E+00
  0.00000000E+00  0.00000000E+00  0.00000000E+00
  0.00000000E+00  0.00000000E+00  0.00000000E+00
  0.00000000E+00  0.00000000E+00  0.00000000E+00
  0.00000000E+00  0.00000000E+00  0.00000000E+00
  0.00000000E+00  0.00000000E+00  0.00000000E+00
  0.00000000E+00  0.00000000E+00  0.00000000E+00
  0.00000000E+00  0.00000000E+00  0.00000000E+00
  0.00000000E+00  0.00000000E+00  0.00000000E+00
  0.00000000E+00  0.00000000E+00  0.00000000E+00
  0.00000000E+00  0.00000000E+00  0.00000000E+00
  0.00000000E+00  0.00000000E+00  0.00000000E+00
  0.00000000E+00  0.00000000E+00  0.00000000E+00
  0.00000000E+00  0.00000000E+00  0.00000000E+00
  0.00000000E+00  0.00000000E+00  0.00000000E+00
  0.00000000E+00  0.00000000E+00  0.00000000E+00
  0.00000000E+00  0.00000000E+00  0.00000000E+00
  0.00000000E+00  0.00000000E+00  0.00000000E+00
  0.00000000E+00  0.00000000E+00  0.00000000E+00
  0.00000000E+00  0.00000000E+00  0.00000000E+00
  0.00000000E+00  0.00000000E+00  0.00000000E+00
  0.00000000E+00  0.00000000E+00  0.00000000E+00
  0.00000000E+00  0.00000000E+00  0.00000000E+00
  0.00000000E+00  0.00000000E+00  0.00000000E+00
  0.00000000E+00  0.00000000E+00  0.00000000E+00
  0.00000000E+00  0.00000000E+00  0.00000000E+00
  0.00000000E+00  0.00000000E+00  0.00000000E+00
  0.00000000E+00  0.00000000E+00  0.00000000E+00
