Bi Te Cl O
 1.0000000000000000
    10.7062624506201356    0.0000000000000005    3.9190776883744651
    -3.4325506011789662   15.3044456862329064    4.8970458856059018
    -0.0000000000000000    0.0000000000000049   39.8425094802109641
Bi Te Cl O
12 8 40 1
Selective dynamics
Cartesian
  9.6597182306406335  0.5410390908327383 27.8605237973885451   F   F   F
  4.3065870053305675  0.5410390908327374 19.2605667064994925   F   F   F
  0.4622229516091886  4.1105084261450475 20.8311680962304351   F   F   F
  5.8452157381311300  3.9458605470660633 29.2616880177674723   T   T   T
  8.8118840437802408  2.4349824567944292 19.6080206755857631   F   F   F
  3.4587528184701721  2.4349824567944305 24.2889000781003581   F   F   F
  3.8149590309710000 12.8694632294384732 25.0092763057235992   F   F   F
 -1.2142217736013938 12.9314283818996749 29.4964734925014120   T   T   T
  1.4583576725219158 11.1939372600878588 19.8670511967044625   F   F   F
  6.8114888978319836 11.1939372600878571 28.4670082875935258   F   F   F
  2.9671248441106037 14.7634065954001663 30.0376096773244576   F   F   F
 -2.3860063811994627 14.7634065954001663 21.4376525864353980   F   F   F
  7.6855978209119087  8.3579412895555620 23.4886545098061745   F   F   F
  2.7261075131967343  8.0609202282425763 27.9226908302180519   T   T   T
  1.6253520462192736  8.8418540881531307 25.5525998240003283   F   F   F
  6.9784832715293437  8.8418540881531289 20.8717204214857333   F   F   F
  0.7273555263762592  5.9166724488824833 28.2657820197939706   T   T   T
  5.6483598032219007  6.4625915980797721 23.7455765598236184   F   F   F
  4.9412452538393330  6.9465043966773417 21.1286424715031984   F   F   F
 -0.4118859714707346  6.9465043966773417 25.8095218740177899   F   F   F
  8.4630074140349816  1.5289473347018026 25.6310538150944147   F   F   F
  3.1098761887249164  1.5289473347018017 17.0310967242053515   F   F   F
  0.2599393881129629  2.8824786329705203 23.6672749081159211   F   F   F
  5.6130706134230328  2.8824786329705199 18.9863955056013296   F   F   F
 -0.8571535956536636  5.9739273812744536 21.9525319370842560   F   F   F
  3.5935024385507832  4.8484077804584489 30.0040956374499004   T   T   T
  1.0993230404494232 -0.5633918566291030 26.0647286031180947   T   T   T
  6.5863842713291998  0.2956997968594734 20.9394862358604570   F   F   F
  1.5196714496863026 12.2700636958704230 25.9936472592981218   F   F   F
  6.8728026749963700 12.2700636958704230 21.3127678567835268   F   F   F
 -0.5333957681605033 13.7806658976170500 19.8485523295912998   F   F   F
  4.8197354571495641 13.7806658976170500 28.4485094204803559   F   F   F
 -0.7689494890179569 10.4814681757009982 18.7567379545284183   F   F   F
  4.5841817362921109 10.4814681757010018 27.3566950454174780   F   F   F
  0.9512955652194828  9.8329055590772345 21.9427227599662622   F   F   F
  6.3044267905295488  9.8329055590772363 30.5426798508553183   F   F   F
  8.5906270527610413  4.7854360113524832 20.7565200889075072   F   F   F
  3.2374958274509735  4.7854360113524832 25.4373994914221022   F   F   F
 10.0114425185956186  1.5915697594718163 21.8050409254839010   F   F   F
  4.6583112932855517  1.5915697594718168 26.4859203279984996   F   F   F
  2.6154005561556195 13.7128759267610860 22.8122560558254612   F   F   F
 -2.7377306691544474 13.7128759267610878 27.4931354583400527   F   F   F
  4.0362160219901977 10.5190096748804187 23.8607768924018586   F   F   F
 -2.4780125087101545 10.9634030806730749 30.3251654452312280   T   T   T
  0.9692850589116202  5.4715401271556701 18.7554965329686354   F   F   F
  6.3224162842216893  5.4715401271556718 27.3554536238576880   F   F   F
  2.6895301131490603  4.8229775105319019 21.9414813384064757   F   F   F
  7.1442520283128932  5.1832805060439320 30.9821867708426097   T   T   T
  2.4539763922916067  1.5237797886158557 20.8496669633436014   F   F   F
  8.2279174486790225  1.6399154054681184 29.6718450753311096   T   T   T
  0.4009091744447995  3.0343819903624825 14.7045720336367687   F   F   F
  5.7540403997548690  3.0343819903624834 23.3045291245258284   F   F   F
  0.6873275781119683 15.0087458893734365 28.3586901479634932   F   F   F
  6.0404588034220357 15.0087458893734347 23.6778107454489017   F   F   F
  2.7777342197847688  9.3305183049584492 18.7456873558506345   F   F   F
  8.1308654450948339  9.3305183049584492 27.3456444467396977   F   F   F
  1.6278962970739062 12.5646642595823952 30.6345832801125582   T   T   T
  7.0137724613282071 12.4219670532623851 25.6309014757080362   F   F   F
  4.1624255875157239 14.0080349116396459 32.4002523682257646   T   T   T
 -1.1892955645938148 13.7754983515311018 23.6671225687295461   F   F   F
 -0.3056465038698541  6.6612699141750973 29.5788134705277983   T   T   T
