Ag Pt H O                               
   1.00000000000000     
     8.5458042134173819    0.0000000000000000    0.0000000000000005
    -4.2729021067086901    7.4008835445875452    0.0000000000000005
     0.0000000000000000    0.0000000000000000   43.0737851649507064
   Ag   Pt   H    O 
    27    27     1     1
Selective dynamics
Direct
  0.0009374405863909  0.9999348977710341  0.6472185313479812   T   T   T
  0.1111111111111143  0.2222222222222214  0.4246635094395899   F   F   F
  0.2222222222222214  0.1111111111111143  0.5357746205507041   F   F   F
  0.1111111111111143  0.2222222222222214  0.5913301761062542   F   F   F
  0.2222222222222214  0.1111111111111143  0.3691079538840327   F   F   F
  0.0000000000000000  0.0000000000000000  0.4802190649951470   F   F   F
  0.0044271052416960  0.3291065921809775  0.6473239891509195   T   T   T
  0.1111111111111143  0.5555555555555571  0.4246635094395899   F   F   F
  0.2222222222222214  0.4444444444444429  0.5357746205507041   F   F   F
  0.1111111111111143  0.5555555555555571  0.5913301761062542   F   F   F
  0.2222222222222214  0.4444444444444429  0.3691079538840327   F   F   F
  0.0000000000000000  0.3333333333333357  0.4802190649951470   F   F   F
  0.0058309560959984  0.6749728126993659  0.6475728884111902   T   T   T
  0.1111111111111143  0.8888888888888857  0.4246635094395899   F   F   F
  0.2222222222222214  0.7777777777777786  0.5357746205507041   F   F   F
  0.1111111111111143  0.8888888888888857  0.5913301761062542   F   F   F
  0.2222222222222214  0.7777777777777786  0.3691079538840327   F   F   F
  0.0000000000000000  0.6666666666666643  0.4802190649951470   F   F   F
  0.3345365199507100  0.9992194591072376  0.6472037739883874   T   T   T
  0.4444444444444429  0.2222222222222214  0.4246635094395899   F   F   F
  0.5555555555555571  0.1111111111111143  0.5357746205507041   F   F   F
  0.4444444444444429  0.2222222222222214  0.5913301761062542   F   F   F
  0.5555555555555571  0.1111111111111143  0.3691079538840327   F   F   F
  0.3333333333333357  0.0000000000000000  0.4802190649951470   F   F   F
  0.3337186338123885  0.3324891862628689  0.6472204580382268   T   T   T
  0.4444444444444429  0.5555555555555571  0.4246635094395899   F   F   F
  0.5555555555555571  0.4444444444444429  0.5357746205507041   F   F   F
  0.4444444444444429  0.5555555555555571  0.5913301761062542   F   F   F
  0.5555555555555571  0.4444444444444429  0.3691079538840327   F   F   F
  0.3333333333333357  0.3333333333333357  0.4802190649951470   F   F   F
  0.3360140687608606  0.6665666330350248  0.6467872750606602   T   T   T
  0.4444444444444429  0.8888888888888857  0.4246635094395899   F   F   F
  0.5555555555555571  0.7777777777777786  0.5357746205507041   F   F   F
  0.4444444444444429  0.8888888888888857  0.5913301761062542   F   F   F
  0.5555555555555571  0.7777777777777786  0.3691079538840327   F   F   F
  0.3333333333333357  0.6666666666666643  0.4802190649951470   F   F   F
  0.6667228039713038  0.9972186235804941  0.6467629946561146   T   T   T
  0.7777777777777786  0.2222222222222214  0.4246635094395899   F   F   F
  0.8888888888888857  0.1111111111111143  0.5357746205507041   F   F   F
  0.7777777777777786  0.2222222222222214  0.5913301761062542   F   F   F
  0.8888888888888857  0.1111111111111143  0.3691079538840327   F   F   F
  0.6666666666666643  0.0000000000000000  0.4802190649951470   F   F   F
  0.6585575849749645  0.3277289926693499  0.6475320447199167   T   T   T
  0.7777777777777786  0.5555555555555571  0.4246635094395899   F   F   F
  0.8888888888888857  0.4444444444444429  0.5357746205507041   F   F   F
  0.7777777777777786  0.5555555555555571  0.5913301761062542   F   F   F
  0.8888888888888857  0.4444444444444429  0.3691079538840327   F   F   F
  0.6666666666666643  0.3333333333333357  0.4802190649951470   F   F   F
  0.6663625503741670  0.6669052622725360  0.6467771574975103   T   T   T
  0.7777777777777786  0.8888888888888857  0.4246635094395899   F   F   F
  0.8888888888888857  0.7777777777777786  0.5357746205507041   F   F   F
  0.7777777777777786  0.8888888888888857  0.5913301761062542   F   F   F
  0.8888888888888857  0.7777777777777786  0.3691079538840327   F   F   F
  0.6666666666666643  0.6666666666666643  0.4802190649951470   F   F   F
  0.8951893748584467  0.4394174038251535  0.7065853345971576   T   T   T
  0.8902156063562074  0.4430225683822471  0.6839776131737736   T   T   T
 
  0.00000000E+00  0.00000000E+00  0.00000000E+00
  0.00000000E+00  0.00000000E+00  0.00000000E+00
  0.00000000E+00  0.00000000E+00  0.00000000E+00
  0.00000000E+00  0.00000000E+00  0.00000000E+00
  0.00000000E+00  0.00000000E+00  0.00000000E+00
  0.00000000E+00  0.00000000E+00  0.00000000E+00
  0.00000000E+00  0.00000000E+00  0.00000000E+00
  0.00000000E+00  0.00000000E+00  0.00000000E+00
  0.00000000E+00  0.00000000E+00  0.00000000E+00
  0.00000000E+00  0.00000000E+00  0.00000000E+00
  0.00000000E+00  0.00000000E+00  0.00000000E+00
  0.00000000E+00  0.00000000E+00  0.00000000E+00
  0.00000000E+00  0.00000000E+00  0.00000000E+00
  0.00000000E+00  0.00000000E+00  0.00000000E+00
  0.00000000E+00  0.00000000E+00  0.00000000E+00
  0.00000000E+00  0.00000000E+00  0.00000000E+00
  0.00000000E+00  0.00000000E+00  0.00000000E+00
  0.00000000E+00  0.00000000E+00  0.00000000E+00
  0.00000000E+00  0.00000000E+00  0.00000000E+00
  0.00000000E+00  0.00000000E+00  0.00000000E+00
  0.00000000E+00  0.00000000E+00  0.00000000E+00
  0.00000000E+00  0.00000000E+00  0.00000000E+00
  0.00000000E+00  0.00000000E+00  0.00000000E+00
  0.00000000E+00  0.00000000E+00  0.00000000E+00
  0.00000000E+00  0.00000000E+00  0.00000000E+00
  0.00000000E+00  0.00000000E+00  0.00000000E+00
  0.00000000E+00  0.00000000E+00  0.00000000E+00
  0.00000000E+00  0.00000000E+00  0.00000000E+00
  0.00000000E+00  0.00000000E+00  0.00000000E+00
  0.00000000E+00  0.00000000E+00  0.00000000E+00
  0.00000000E+00  0.00000000E+00  0.00000000E+00
  0.00000000E+00  0.00000000E+00  0.00000000E+00
  0.00000000E+00  0.00000000E+00  0.00000000E+00
  0.00000000E+00  0.00000000E+00  0.00000000E+00
  0.00000000E+00  0.00000000E+00  0.00000000E+00
  0.00000000E+00  0.00000000E+00  0.00000000E+00
  0.00000000E+00  0.00000000E+00  0.00000000E+00
  0.00000000E+00  0.00000000E+00  0.00000000E+00
  0.00000000E+00  0.00000000E+00  0.00000000E+00
  0.00000000E+00  0.00000000E+00  0.00000000E+00
  0.00000000E+00  0.00000000E+00  0.00000000E+00
  0.00000000E+00  0.00000000E+00  0.00000000E+00
  0.00000000E+00  0.00000000E+00  0.00000000E+00
  0.00000000E+00  0.00000000E+00  0.00000000E+00
  0.00000000E+00  0.00000000E+00  0.00000000E+00
  0.00000000E+00  0.00000000E+00  0.00000000E+00
  0.00000000E+00  0.00000000E+00  0.00000000E+00
  0.00000000E+00  0.00000000E+00  0.00000000E+00
  0.00000000E+00  0.00000000E+00  0.00000000E+00
  0.00000000E+00  0.00000000E+00  0.00000000E+00
  0.00000000E+00  0.00000000E+00  0.00000000E+00
  0.00000000E+00  0.00000000E+00  0.00000000E+00
  0.00000000E+00  0.00000000E+00  0.00000000E+00
  0.00000000E+00  0.00000000E+00  0.00000000E+00
  0.00000000E+00  0.00000000E+00  0.00000000E+00
  0.00000000E+00  0.00000000E+00  0.00000000E+00
