Ag Pt H O
 1.0000000000000000
     8.5458042134173819    0.0000000000000000    0.0000000000000005
    -4.2729021067086901    7.4008835445875452    0.0000000000000005
     0.0000000000000000    0.0000000000000000   43.0737851649507064
Ag Pt H O
27 27 1 1
Selective dynamics
Cartesian
  0.0082893591643369 -0.0004818140150746 27.8781519740579249   T   T   T
  0.0000000000000001  1.6446407876861213 18.2918647729949022   F   F   F
  1.4243007022362302  0.8223203938430610 23.0778409024338700   F   F   F
  0.0000000000000003  1.6446407876861218 25.4708289671533556   F   F   F
  1.4243007022362308  0.8223203938430612 15.8988767082754183   F   F   F
 -0.0000000000000002  0.0000000000000008 20.6848528377143843   F   F   F
 -1.3684070764341025  2.4356795624874894 27.8826944408057322   T   T   T
 -1.4243007022362302  4.1116019692153030 18.2918647729949022   F   F   F
  0.0000000000000000  3.2892815753722431 23.0778409024338700   F   F   F
 -1.4243007022362297  4.1116019692153039 25.4708289671533556   F   F   F
  0.0000000000000007  3.2892815753722431 15.8988767082754183   F   F   F
 -1.4243007022362304  2.4669611815291828 20.6848528377143843   F   F   F
 -2.8342625441807874  4.9953951825507010 27.8934154740701494   T   T   T
 -2.8486014044724604  6.5785631507444853 18.2918647729949022   F   F   F
 -1.4243007022362302  5.7562427569014245 23.0778409024338700   F   F   F
 -2.8486014044724599  6.5785631507444853 25.4708289671533556   F   F   F
 -1.4243007022362295  5.7562427569014254 15.8988767082754183   F   F   F
 -2.8486014044724604  4.9339223630583646 20.6848528377143843   F   F   F
  2.8622187765618174 -0.0057766922491282 27.8775163187211881   T   T   T
  2.8486014044724608  1.6446407876861213 18.2918647729949022   F   F   F
  4.2729021067086910  0.8223203938430610 23.0778409024338700   F   F   F
  2.8486014044724612  1.6446407876861218 25.4708289671533556   F   F   F
  4.2729021067086919  0.8223203938430612 15.8988767082754183   F   F   F
  2.8486014044724608  0.0000000000000008 20.6848528377143843   F   F   F
  1.4312003624893421  2.4607137473661669 27.8782349638996827   T   T   T
  1.4243007022362306  4.1116019692153030 18.2918647729949022   F   F   F
  2.8486014044724608  3.2892815753722431 23.0778409024338700   F   F   F
  1.4243007022362311  4.1116019692153039 25.4708289671533556   F   F   F
  2.8486014044724612  3.2892815753722431 15.8988767082754183   F   F   F
  1.4243007022362304  2.4669611815291828 20.6848528377143843   F   F   F
  0.0233364740270194  4.9331820258000425 27.8595761333869056   T   T   T
  0.0000000000000006  6.5785631507444853 18.2918647729949022   F   F   F
  1.4243007022362306  5.7562427569014245 23.0778409024338700   F   F   F
  0.0000000000000008  6.5785631507444853 25.4708289671533556   F   F   F
  1.4243007022362313  5.7562427569014254 15.8988767082754183   F   F   F
  0.0000000000000003  4.9339223630583646 20.6848528377143843   F   F   F
  5.7095670965218508 -0.0205846429744270 27.8585302844577534   T   T   T
  5.6972028089449216  1.6446407876861213 18.2918647729949022   F   F   F
  7.1215035111811513  0.8223203938430610 23.0778409024338700   F   F   F
  5.6972028089449216  1.6446407876861218 25.4708289671533556   F   F   F
  7.1215035111811522  0.8223203938430612 15.8988767082754183   F   F   F
  5.6972028089449216  0.0000000000000008 20.6848528377143843   F   F   F
  4.2275502812506360  2.4254841089308274 27.8916561816869368   T   T   T
  4.2729021067086919  4.1116019692153030 18.2918647729949022   F   F   F
  5.6972028089449225  3.2892815753722431 23.0778409024338700   F   F   F
  4.2729021067086919  4.1116019692153039 25.4708289671533556   F   F   F
  5.6972028089449225  3.2892815753722431 15.8988767082754183   F   F   F
  4.2729021067086919  2.4669611815291828 20.6848528377143843   F   F   F
  2.8449829905116673  4.9356881813516429 27.8591403316451185   T   T   T
  2.8486014044724612  6.5785631507444853 18.2918647729949022   F   F   F
  4.2729021067086919  5.7562427569014245 23.0778409024338700   F   F   F
  2.8486014044724617  6.5785631507444853 25.4708289671533556   F   F   F
  4.2729021067086919  5.7562427569014254 15.8988767082754183   F   F   F
  2.8486014044724612  4.9339223630583646 20.6848528377143843   F   F   F
  5.7725255809428075  3.2520770331749524 30.4353049031428640   T   T   T
  5.7146162138888013  3.2787584362210733 29.4615047674829711   T   T   T
