Cd As Pd O                              
   1.00000000000000     
     8.1355300400000008    0.0000000000000000    0.0000000000000005
    -0.0000000000000009   14.4600236199999994    0.0000000000000009
     0.0000000000000000    0.0000000000000000   28.4743551400000037
   Cd   As   Pd   O 
     8     8    40     1
Selective dynamics
Direct
  0.2500000000000000  0.0000000000000000  0.3894352696436414   F   F   F
  0.0000000000000000  0.2500000000000000  0.4608638410722179   F   F   F
  0.0000000000000000  0.0000000000000000  0.4608638410722179   F   F   F
  0.0000000000000000  0.1452314949999973  0.3894352696436414   F   F   F
  0.2500000000000000  0.1452314949999973  0.4608638410722179   F   F   F
  0.0000000000000000  0.3547685050000027  0.3894352696436414   F   F   F
  0.2500000000000000  0.3547685050000027  0.4608638410722179   F   F   F
  0.2500000000000000  0.0000000000000000  0.5322924125007873   F   F   F
  0.9999494951044525  0.2507369904630465  0.6033241188783904   T   T   T
  0.0013961513510239  0.0007224213611607  0.6013977888720348   T   T   T
  0.0000000000000000  0.1452314949999973  0.5322924125007873   F   F   F
  0.2504151310120335  0.1530423753650112  0.6016278047299224   T   T   T
  0.0000000000000000  0.3547685050000027  0.5322924125007873   F   F   F
  0.2507575077168553  0.3543267978557978  0.6077411290306074   T   T   T
  0.2500000000000000  0.5000000000000000  0.3894352696436414   F   F   F
  0.0000000000000000  0.7500000000000000  0.4608638410722179   F   F   F
  0.0000000000000000  0.5000000000000000  0.4608638410722179   F   F   F
  0.0000000000000000  0.6452314949999973  0.3894352696436414   F   F   F
  0.2500000000000000  0.6452314949999973  0.4608638410722179   F   F   F
  0.0000000000000000  0.8547685050000027  0.3894352696436414   F   F   F
  0.2500000000000000  0.8547685050000027  0.4608638410722179   F   F   F
  0.2500000000000000  0.5000000000000000  0.5322924125007873   F   F   F
  0.9994928108888175  0.7503218676264183  0.6034158198278803   T   T   T
  0.9985353673857560  0.5011937435922817  0.6036133114697435   T   T   T
  0.0000000000000000  0.6452314949999973  0.5322924125007873   F   F   F
  0.2514188316208958  0.6481182074499401  0.6082137384194368   T   T   T
  0.0000000000000000  0.8547685050000027  0.5322924125007873   F   F   F
  0.2504067277015878  0.8480152005161372  0.6019478101175011   T   T   T
  0.7500000000000000  0.0000000000000000  0.3894352696436414   F   F   F
  0.5000000000000000  0.2500000000000000  0.4608638410722179   F   F   F
  0.5000000000000000  0.0000000000000000  0.4608638410722179   F   F   F
  0.5000000000000000  0.1452314949999973  0.3894352696436414   F   F   F
  0.7500000000000000  0.1452314949999973  0.4608638410722179   F   F   F
  0.5000000000000000  0.3547685050000027  0.3894352696436414   F   F   F
  0.7500000000000000  0.3547685050000027  0.4608638410722179   F   F   F
  0.7500000000000000  0.0000000000000000  0.5322924125007873   F   F   F
  0.5012946515353391  0.2506590987613251  0.6033009253285115   T   T   T
  0.4988335317102468  0.0006927696406507  0.6013604330240696   T   T   T
  0.5000000000000000  0.1452314949999973  0.5322924125007873   F   F   F
  0.7506488424754707  0.1510907818392297  0.6019815253408183   T   T   T
  0.5000000000000000  0.3547685050000027  0.5322924125007873   F   F   F
  0.7502688305866627  0.3554607929828606  0.6029664222320577   T   T   T
  0.7500000000000000  0.5000000000000000  0.3894352696436414   F   F   F
  0.5000000000000000  0.7500000000000000  0.4608638410722179   F   F   F
  0.5000000000000000  0.5000000000000000  0.4608638410722179   F   F   F
  0.5000000000000000  0.6452314949999973  0.3894352696436414   F   F   F
  0.7500000000000000  0.6452314949999973  0.4608638410722179   F   F   F
  0.5000000000000000  0.8547685050000027  0.3894352696436414   F   F   F
  0.7500000000000000  0.8547685050000027  0.4608638410722179   F   F   F
  0.7500000000000000  0.5000000000000000  0.5322924125007873   F   F   F
  0.5019955830523344  0.7509827158548035  0.6034818919923950   T   T   T
  0.5007579923063190  0.5006856559573265  0.6035254383672068   T   T   T
  0.5000000000000000  0.6452314949999973  0.5322924125007873   F   F   F
  0.7501020358350559  0.6467616276638992  0.6027047241993557   T   T   T
  0.5000000000000000  0.8547685050000027  0.5322924125007873   F   F   F
  0.7510208009165282  0.8508124260667884  0.6025386603539218   T   T   T
  0.2497836969358218  0.5006425016025418  0.6286666812732236   T   T   T
 
  0.00000000E+00  0.00000000E+00  0.00000000E+00
  0.00000000E+00  0.00000000E+00  0.00000000E+00
  0.00000000E+00  0.00000000E+00  0.00000000E+00
  0.00000000E+00  0.00000000E+00  0.00000000E+00
  0.00000000E+00  0.00000000E+00  0.00000000E+00
  0.00000000E+00  0.00000000E+00  0.00000000E+00
  0.00000000E+00  0.00000000E+00  0.00000000E+00
  0.00000000E+00  0.00000000E+00  0.00000000E+00
  0.00000000E+00  0.00000000E+00  0.00000000E+00
  0.00000000E+00  0.00000000E+00  0.00000000E+00
  0.00000000E+00  0.00000000E+00  0.00000000E+00
  0.00000000E+00  0.00000000E+00  0.00000000E+00
  0.00000000E+00  0.00000000E+00  0.00000000E+00
  0.00000000E+00  0.00000000E+00  0.00000000E+00
  0.00000000E+00  0.00000000E+00  0.00000000E+00
  0.00000000E+00  0.00000000E+00  0.00000000E+00
  0.00000000E+00  0.00000000E+00  0.00000000E+00
  0.00000000E+00  0.00000000E+00  0.00000000E+00
  0.00000000E+00  0.00000000E+00  0.00000000E+00
  0.00000000E+00  0.00000000E+00  0.00000000E+00
  0.00000000E+00  0.00000000E+00  0.00000000E+00
  0.00000000E+00  0.00000000E+00  0.00000000E+00
  0.00000000E+00  0.00000000E+00  0.00000000E+00
  0.00000000E+00  0.00000000E+00  0.00000000E+00
  0.00000000E+00  0.00000000E+00  0.00000000E+00
  0.00000000E+00  0.00000000E+00  0.00000000E+00
  0.00000000E+00  0.00000000E+00  0.00000000E+00
  0.00000000E+00  0.00000000E+00  0.00000000E+00
  0.00000000E+00  0.00000000E+00  0.00000000E+00
  0.00000000E+00  0.00000000E+00  0.00000000E+00
  0.00000000E+00  0.00000000E+00  0.00000000E+00
  0.00000000E+00  0.00000000E+00  0.00000000E+00
  0.00000000E+00  0.00000000E+00  0.00000000E+00
  0.00000000E+00  0.00000000E+00  0.00000000E+00
  0.00000000E+00  0.00000000E+00  0.00000000E+00
  0.00000000E+00  0.00000000E+00  0.00000000E+00
  0.00000000E+00  0.00000000E+00  0.00000000E+00
  0.00000000E+00  0.00000000E+00  0.00000000E+00
  0.00000000E+00  0.00000000E+00  0.00000000E+00
  0.00000000E+00  0.00000000E+00  0.00000000E+00
  0.00000000E+00  0.00000000E+00  0.00000000E+00
  0.00000000E+00  0.00000000E+00  0.00000000E+00
  0.00000000E+00  0.00000000E+00  0.00000000E+00
  0.00000000E+00  0.00000000E+00  0.00000000E+00
  0.00000000E+00  0.00000000E+00  0.00000000E+00
  0.00000000E+00  0.00000000E+00  0.00000000E+00
  0.00000000E+00  0.00000000E+00  0.00000000E+00
  0.00000000E+00  0.00000000E+00  0.00000000E+00
  0.00000000E+00  0.00000000E+00  0.00000000E+00
  0.00000000E+00  0.00000000E+00  0.00000000E+00
  0.00000000E+00  0.00000000E+00  0.00000000E+00
  0.00000000E+00  0.00000000E+00  0.00000000E+00
  0.00000000E+00  0.00000000E+00  0.00000000E+00
  0.00000000E+00  0.00000000E+00  0.00000000E+00
  0.00000000E+00  0.00000000E+00  0.00000000E+00
  0.00000000E+00  0.00000000E+00  0.00000000E+00
  0.00000000E+00  0.00000000E+00  0.00000000E+00
