Cd As Pd O
 1.0000000000000000
     8.1355300400000008    0.0000000000000000    0.0000000000000005
    -0.0000000000000009   14.4600236199999994    0.0000000000000009
     0.0000000000000000    0.0000000000000000   28.4743551400000037
Cd As Pd O
8 8 40 1
Selective dynamics
Cartesian
  2.0338825100000002  0.0000000000000000 11.0889181718748091   F   F   F
 -0.0000000000000002  3.6150059049999999 13.1228006818748089   F   F   F
  0.0000000000000000  0.0000000000000000 13.1228006818748089   F   F   F
 -0.0000000000000001  2.1000508480679123 11.0889181718748091   F   F   F
  2.0338825100000002  2.1000508480679123 13.1228006818748089   F   F   F
 -0.0000000000000003  5.1299609619320883 11.0889181718748091   F   F   F
  2.0338825099999998  5.1299609619320883 13.1228006818748089   F   F   F
  2.0338825100000002  0.0000000000000000 15.1566831918748068   F   F   F
 -0.0004108840948904  3.6256628045033739 17.1792652254709068   T   T   T
  0.0113584312566672  0.0104462299459556 17.1244142207530317   T   T   T
 -0.0000000000000001  2.1000508480679123 15.1566831918748068   F   F   F
  2.0372598208189054  2.2129963626389504 17.1309637739783724   T   T   T
 -0.0000000000000003  5.1299609619320883 15.1566831918748068   F   F   F
  2.0400452367859874  5.1235738661937695 17.3050367412021373   T   T   T
  2.0338825099999998  7.2300118099999997 11.0889181718748091   F   F   F
 -0.0000000000000007 10.8450177149999991 13.1228006818748089   F   F   F
 -0.0000000000000004  7.2300118099999997 13.1228006818748089   F   F   F
 -0.0000000000000006  9.3300626580679129 11.0889181718748091   F   F   F
  2.0338825099999998  9.3300626580679129 13.1228006818748089   F   F   F
 -0.0000000000000008 12.3599727719320889 11.0889181718748091   F   F   F
  2.0338825099999993 12.3599727719320889 13.1228006818748089   F   F   F
  2.0338825099999998  7.2300118099999997 15.1566831918748068   F   F   F
 -0.0041262522499899 10.8496719284805341 17.1818763508732886   T   T   T
 -0.0119155626307479  7.2472733705406460 17.1874997980209159   T   T   T
 -0.0000000000000006  9.3300626580679129 15.1566831918748068   F   F   F
  2.0454254572734829  9.3718045882781773 17.3184939887820732   T   T   T
 -0.0000000000000008 12.3599727719320889 15.1566831918748068   F   F   F
  2.0371914554343546 12.2623198295824203 17.1400757210309607   T   T   T
  6.1016475300000010  0.0000000000000000 11.0889181718748091   F   F   F
  4.0677650200000004  3.6150059049999999 13.1228006818748089   F   F   F
  4.0677650200000004  0.0000000000000000 13.1228006818748089   F   F   F
  4.0677650200000004  2.1000508480679123 11.0889181718748091   F   F   F
  6.1016475300000010  2.1000508480679123 13.1228006818748089   F   F   F
  4.0677650200000004  5.1299609619320883 11.0889181718748091   F   F   F
  6.1016475300000002  5.1299609619320883 13.1228006818748089   F   F   F
  6.1016475300000010  0.0000000000000000 15.1566831918748068   F   F   F
  4.0782976964570752  3.6245364886566693 17.1786048040945829   T   T   T
  4.0582751821880025  0.0100174653670422 17.1233505370716088   T   T   T
  4.0677650200000004  2.1000508480679123 15.1566831918748068   F   F   F
  6.1069262074504067  2.1847762741595211 17.1410357402734448   T   T   T
  4.0677650200000004  5.1299609619320883 15.1566831918748068   F   F   F
  6.1038346093134441  5.1399714625161188 17.1690800441307587   T   T   T
  6.1016475300000010  7.2300118099999997 11.0889181718748091   F   F   F
  4.0677650200000004 10.8450177149999991 13.1228006818748089   F   F   F
  4.0677650200000004  7.2300118099999997 13.1228006818748089   F   F   F
  4.0677650200000004  9.3300626580679129 11.0889181718748091   F   F   F
  6.1016475300000010  9.3300626580679129 13.1228006818748089   F   F   F
  4.0677650200000004 12.3599727719320889 11.0889181718748091   F   F   F
  6.1016475300000002 12.3599727719320889 13.1228006818748089   F   F   F
  6.1016475300000010  7.2300118099999997 15.1566831918748068   F   F   F
  4.0840001458695712 10.8592278094722179 17.1837577131506336   T   T   T
  4.0739316891781288  7.2399264113380957 17.1849976680920449   T   T   T
  4.0677650200000004  9.3300626580679129 15.1566831918748068   F   F   F
  6.1024776456012759  9.3521884125296530 17.1616283614081553   T   T   T
  4.0677650200000004 12.3599727719320889 15.1566831918748068   F   F   F
  6.1099522865212839 12.3027677771152320 17.1568998004974205   T   T   T
  2.0321227699236588  7.2393023983486806 17.9008783472589457   T   T   T
