Hg Pd H O                               
   1.00000000000000     
     9.3446052078756523    0.0000000000000000    0.0000000000000006
    -0.0000000000000006    9.7038783921006679   -2.1172296531142538
     0.0000000000000000    0.0000000000000000   34.7625802601825029
   Hg   Pd   H    O 
    24    24     1     1
Selective dynamics
Direct
  0.0000000000000000  0.0000000000000000  0.4642857142857153   F   F   F
  0.0000000000000000  0.2500000000000000  0.3928571428571459   F   F   F
  0.1666666666666643  0.0000000000000000  0.3928571428571459   F   F   F
  0.1666666666666643  0.2500000000000000  0.4642857142857153   F   F   F
  0.9902151441902021  0.0032611961871396  0.6109537667726102   T   T   T
  0.0000000000000000  0.2500000000000000  0.5357142857142847   F   F   F
  0.1666666666666643  0.0000000000000000  0.5357142857142847   F   F   F
  0.1666589276851198  0.2395794801872313  0.6030270131457414   T   T   T
  0.0000000000000000  0.5000000000000000  0.4642857142857153   F   F   F
  0.0000000000000000  0.7500000000000000  0.3928571428571459   F   F   F
  0.1666666666666643  0.5000000000000000  0.3928571428571459   F   F   F
  0.1666666666666643  0.7500000000000000  0.4642857142857153   F   F   F
  0.0035689214468633  0.5050734621669264  0.6143815580164542   T   T   T
  0.0000000000000000  0.7500000000000000  0.5357142857142847   F   F   F
  0.1666666666666643  0.5000000000000000  0.5357142857142847   F   F   F
  0.1670427951534705  0.7445085201455939  0.6030435484282677   T   T   T
  0.3333333333333357  0.0000000000000000  0.4642857142857153   F   F   F
  0.3333333333333357  0.2500000000000000  0.3928571428571459   F   F   F
  0.5000000000000000  0.0000000000000000  0.3928571428571459   F   F   F
  0.5000000000000000  0.2500000000000000  0.4642857142857153   F   F   F
  0.3432957924770221  0.0030056482716958  0.6109842094155340   T   T   T
  0.3333333333333357  0.2500000000000000  0.5357142857142847   F   F   F
  0.5000000000000000  0.0000000000000000  0.5357142857142847   F   F   F
  0.4942767372413002  0.2542219114111930  0.6036085709405512   T   T   T
  0.3333333333333357  0.5000000000000000  0.4642857142857153   F   F   F
  0.3333333333333357  0.7500000000000000  0.3928571428571459   F   F   F
  0.5000000000000000  0.5000000000000000  0.3928571428571459   F   F   F
  0.5000000000000000  0.7500000000000000  0.4642857142857153   F   F   F
  0.3297910345675277  0.5053229097145433  0.6144070027894912   T   T   T
  0.3333333333333357  0.7500000000000000  0.5357142857142847   F   F   F
  0.5000000000000000  0.5000000000000000  0.5357142857142847   F   F   F
  0.4948586184660755  0.7397571992836376  0.6033613784217948   T   T   T
  0.6666666666666643  0.0000000000000000  0.4642857142857153   F   F   F
  0.6666666666666643  0.2500000000000000  0.3928571428571459   F   F   F
  0.8333333333333357  0.0000000000000000  0.3928571428571459   F   F   F
  0.8333333333333357  0.2500000000000000  0.4642857142857153   F   F   F
  0.6667511903342387  0.9510278768558109  0.6469273901100649   T   T   T
  0.6666666666666643  0.2500000000000000  0.5357142857142847   F   F   F
  0.8333333333333357  0.0000000000000000  0.5357142857142847   F   F   F
  0.8385262683486587  0.2541420679346302  0.6037387934236733   T   T   T
  0.6666666666666643  0.5000000000000000  0.4642857142857153   F   F   F
  0.6666666666666643  0.7500000000000000  0.3928571428571459   F   F   F
  0.8333333333333357  0.5000000000000000  0.3928571428571459   F   F   F
  0.8333333333333357  0.7500000000000000  0.4642857142857153   F   F   F
  0.6668244548310227  0.5102548615059845  0.6097535943288506   T   T   T
  0.6666666666666643  0.7500000000000000  0.5357142857142847   F   F   F
  0.8333333333333357  0.5000000000000000  0.5357142857142847   F   F   F
  0.8385421775809192  0.7397513545993064  0.6034388104845192   T   T   T
  0.6668600365713075  0.2801177435210391  0.6700235174088931   T   T   T
  0.6670652904144916  0.2099763009686200  0.6456411337427639   T   T   T
 
  0.00000000E+00  0.00000000E+00  0.00000000E+00
  0.00000000E+00  0.00000000E+00  0.00000000E+00
  0.00000000E+00  0.00000000E+00  0.00000000E+00
  0.00000000E+00  0.00000000E+00  0.00000000E+00
  0.00000000E+00  0.00000000E+00  0.00000000E+00
  0.00000000E+00  0.00000000E+00  0.00000000E+00
  0.00000000E+00  0.00000000E+00  0.00000000E+00
  0.00000000E+00  0.00000000E+00  0.00000000E+00
  0.00000000E+00  0.00000000E+00  0.00000000E+00
  0.00000000E+00  0.00000000E+00  0.00000000E+00
  0.00000000E+00  0.00000000E+00  0.00000000E+00
  0.00000000E+00  0.00000000E+00  0.00000000E+00
  0.00000000E+00  0.00000000E+00  0.00000000E+00
  0.00000000E+00  0.00000000E+00  0.00000000E+00
  0.00000000E+00  0.00000000E+00  0.00000000E+00
  0.00000000E+00  0.00000000E+00  0.00000000E+00
  0.00000000E+00  0.00000000E+00  0.00000000E+00
  0.00000000E+00  0.00000000E+00  0.00000000E+00
  0.00000000E+00  0.00000000E+00  0.00000000E+00
  0.00000000E+00  0.00000000E+00  0.00000000E+00
  0.00000000E+00  0.00000000E+00  0.00000000E+00
  0.00000000E+00  0.00000000E+00  0.00000000E+00
  0.00000000E+00  0.00000000E+00  0.00000000E+00
  0.00000000E+00  0.00000000E+00  0.00000000E+00
  0.00000000E+00  0.00000000E+00  0.00000000E+00
  0.00000000E+00  0.00000000E+00  0.00000000E+00
  0.00000000E+00  0.00000000E+00  0.00000000E+00
  0.00000000E+00  0.00000000E+00  0.00000000E+00
  0.00000000E+00  0.00000000E+00  0.00000000E+00
  0.00000000E+00  0.00000000E+00  0.00000000E+00
  0.00000000E+00  0.00000000E+00  0.00000000E+00
  0.00000000E+00  0.00000000E+00  0.00000000E+00
  0.00000000E+00  0.00000000E+00  0.00000000E+00
  0.00000000E+00  0.00000000E+00  0.00000000E+00
  0.00000000E+00  0.00000000E+00  0.00000000E+00
  0.00000000E+00  0.00000000E+00  0.00000000E+00
  0.00000000E+00  0.00000000E+00  0.00000000E+00
  0.00000000E+00  0.00000000E+00  0.00000000E+00
  0.00000000E+00  0.00000000E+00  0.00000000E+00
  0.00000000E+00  0.00000000E+00  0.00000000E+00
  0.00000000E+00  0.00000000E+00  0.00000000E+00
  0.00000000E+00  0.00000000E+00  0.00000000E+00
  0.00000000E+00  0.00000000E+00  0.00000000E+00
  0.00000000E+00  0.00000000E+00  0.00000000E+00
  0.00000000E+00  0.00000000E+00  0.00000000E+00
  0.00000000E+00  0.00000000E+00  0.00000000E+00
  0.00000000E+00  0.00000000E+00  0.00000000E+00
  0.00000000E+00  0.00000000E+00  0.00000000E+00
  0.00000000E+00  0.00000000E+00  0.00000000E+00
  0.00000000E+00  0.00000000E+00  0.00000000E+00
