Hg Pd H O
 1.0000000000000000
     9.3446052078756523    0.0000000000000000    0.0000000000000006
    -0.0000000000000006    9.7038783921006679   -2.1172296531142538
     0.0000000000000000    0.0000000000000000   34.7625802601825029
Hg Pd H O
24 24 1 1
Selective dynamics
Cartesian
  0.0000000000000000  0.0000000000000000 16.1397694065133059   F   F   F
 -0.0000000000000001  2.4259695980251670 13.1274205460788487   F   F   F
  1.5574342013126086  0.0000000000000000 13.6567279593574114   F   F   F
  1.5574342013126083  2.4259695980251670 15.6104619932347433   F   F   F
 -0.0914356145585771  0.0316462512128055 21.2314246514215732   T   T   T
 -0.0000000000000001  2.4259695980251670 18.0935034403906343   F   F   F
  1.5574342013126086  0.0000000000000000 18.6228108536691970   F   F   F
  1.5573618835853635  2.3248501409795970 20.4555301638067384   T   T   T
 -0.0000000000000003  4.8519391960503340 15.0811545799561788   F   F   F
 -0.0000000000000004  7.2779087940755005 12.0688057195217215   F   F   F
  1.5574342013126083  4.8519391960503340 12.5981131328002842   F   F   F
  1.5574342013126081  7.2779087940755005 14.5518471666776161   F   F   F
  0.0333501619388696  4.9011714559451134 20.2881317098221139   T   T   T
 -0.0000000000000004  7.2779087940755005 17.0348886138335089   F   F   F
  1.5574342013126083  4.8519391960503340 17.5641960271120716   F   F   F
  1.5609489735291984  7.2246201413756523 19.3870542367745493   T   T   T
  3.1148684026252171  0.0000000000000000 16.1397694065133059   F   F   F
  3.1148684026252171  2.4259695980251670 13.1274205460788487   F   F   F
  4.6723026039378261  0.0000000000000000 13.6567279593574114   F   F   F
  4.6723026039378253  2.4259695980251670 15.6104619932347433   F   F   F
  3.2079636502225926  0.0291664453179692 21.2330239698640320   T   T   T
  3.1148684026252171  2.4259695980251670 18.0935034403906343   F   F   F
  4.6723026039378261  0.0000000000000000 18.6228108536691970   F   F   F
  4.6188209729568568  2.4669385129416148 20.4447452237438618   T   T   T
  3.1148684026252167  4.8519391960503340 15.0811545799561788   F   F   F
  3.1148684026252167  7.2779087940755005 12.0688057195217215   F   F   F
  4.6723026039378253  4.8519391960503340 12.5981131328002842   F   F   F
  4.6723026039378253  7.2779087940755005 14.5518471666776161   F   F   F
  3.0817670191304214  4.9035920646124209 20.2884880980422118   T   T   T
  3.1148684026252167  7.2779087940755005 17.0348886138335089   F   F   F
  4.6723026039378253  4.8519391960503340 17.5641960271120716   F   F   F
  4.6242584232802271  7.1785139015293851 19.4081624648539055   T   T   T
  6.2297368052504343  0.0000000000000000 16.1397694065133059   F   F   F
  6.2297368052504343  2.4259695980251670 13.1274205460788487   F   F   F
  7.7871710065630424  0.0000000000000000 13.6567279593574114   F   F   F
  7.7871710065630424  2.4259695980251670 15.6104619932347433   F   F   F
  6.2305266455545851 -0.4752195275941631 22.5925505525083530   T   T   T
  6.2297368052504343  2.4259695980251670 18.0935034403906343   F   F   F
  7.7871710065630424  0.0000000000000000 18.6228108536691970   F   F   F
  7.8356969341513860  2.4661637215546555 20.4494411402413014   T   T   T
  6.2297368052504343  4.8519391960503340 15.0811545799561788   F   F   F
  6.2297368052504343  7.2779087940755005 12.0688057195217215   F   F   F
  7.7871710065630424  4.8519391960503340 12.5981131328002842   F   F   F
  7.7871710065630424  7.2779087940755005 14.5518471666776161   F   F   F
  6.2312112733528355  4.9514511250322171 20.1162815383653601   T   T   T
  6.2297368052504343  7.2779087940755005 17.0348886138335089   F   F   F
  7.7871710065630424  4.8519391960503340 17.5641960271120716   F   F   F
  7.8358455996460208  7.1784571854234116 19.4108665776880862   T   T   T
  6.2315437706683685  2.7182285185977748 22.6986727071902621   T   T   T
  6.2334617868003370  2.0375844898226090 21.9995836801461557   T   T   T
