Te O                                    
   1.00000000000000     
     9.6768936560985743    0.0000000000000000    0.0000000000000006
    -0.0000000000000006    9.3519449600000009    0.0000000000000006
     0.0000000000000000    0.0000000000000000   31.2754595884879443
   Te   O 
    24     1
Selective dynamics
Direct
  0.1666666666666643  0.7500000000000000  0.4963045828571424   F   F   F
  0.1666666666666643  0.2500000000000000  0.3608382742857117   F   F   F
  0.1666666666666643  0.0000000000000000  0.4285714285714306   F   F   F
  0.1666666666666643  0.5000000000000000  0.4285714285714306   F   F   F
  0.1668017818032794  0.7549160819255363  0.6459486782704644   T   T   T
  0.1674175939262312  0.2555060933786280  0.5178237204403331   T   T   T
  0.1670625697629333  0.0265567011705272  0.5818981274000876   T   T   T
  0.1669570530973488  0.5300673220281453  0.5738317111798565   T   T   T
  0.5000000000000000  0.7500000000000000  0.4963045828571424   F   F   F
  0.5000000000000000  0.2500000000000000  0.3608382742857117   F   F   F
  0.5000000000000000  0.0000000000000000  0.4285714285714306   F   F   F
  0.5000000000000000  0.5000000000000000  0.4285714285714306   F   F   F
  0.4737868444730822  0.7398099650069412  0.6432848636887698   T   T   T
  0.5173403653731157  0.2335179536841849  0.5160467810184173   T   T   T
  0.4955464190199095  0.9930711776626353  0.5792328339193276   T   T   T
  0.4818614834307127  0.4740807291683069  0.5984364022924780   T   T   T
  0.8333333333333357  0.7500000000000000  0.4963045828571424   F   F   F
  0.8333333333333357  0.2500000000000000  0.3608382742857117   F   F   F
  0.8333333333333357  0.0000000000000000  0.4285714285714306   F   F   F
  0.8333333333333357  0.5000000000000000  0.4285714285714306   F   F   F
  0.8618844460565214  0.7384099738284817  0.6430791164213829   T   T   T
  0.8170605732746381  0.2351930240379545  0.5162741462480227   T   T   T
  0.8405056477083406  0.9936957943378104  0.5793292812123951   T   T   T
  0.8521721221888541  0.4740518667528093  0.5978595057524245   T   T   T
  0.6673041755397335  0.4198610109736549  0.6247683261426857   T   T   T
 
  0.00000000E+00  0.00000000E+00  0.00000000E+00
  0.00000000E+00  0.00000000E+00  0.00000000E+00
  0.00000000E+00  0.00000000E+00  0.00000000E+00
  0.00000000E+00  0.00000000E+00  0.00000000E+00
  0.00000000E+00  0.00000000E+00  0.00000000E+00
  0.00000000E+00  0.00000000E+00  0.00000000E+00
  0.00000000E+00  0.00000000E+00  0.00000000E+00
  0.00000000E+00  0.00000000E+00  0.00000000E+00
  0.00000000E+00  0.00000000E+00  0.00000000E+00
  0.00000000E+00  0.00000000E+00  0.00000000E+00
  0.00000000E+00  0.00000000E+00  0.00000000E+00
  0.00000000E+00  0.00000000E+00  0.00000000E+00
  0.00000000E+00  0.00000000E+00  0.00000000E+00
  0.00000000E+00  0.00000000E+00  0.00000000E+00
  0.00000000E+00  0.00000000E+00  0.00000000E+00
  0.00000000E+00  0.00000000E+00  0.00000000E+00
  0.00000000E+00  0.00000000E+00  0.00000000E+00
  0.00000000E+00  0.00000000E+00  0.00000000E+00
  0.00000000E+00  0.00000000E+00  0.00000000E+00
  0.00000000E+00  0.00000000E+00  0.00000000E+00
  0.00000000E+00  0.00000000E+00  0.00000000E+00
  0.00000000E+00  0.00000000E+00  0.00000000E+00
  0.00000000E+00  0.00000000E+00  0.00000000E+00
  0.00000000E+00  0.00000000E+00  0.00000000E+00
  0.00000000E+00  0.00000000E+00  0.00000000E+00
