Te O
 1.0000000000000000
     9.6768936560985743    0.0000000000000000    0.0000000000000006
    -0.0000000000000006    9.3519449600000009    0.0000000000000006
     0.0000000000000000    0.0000000000000000   31.2754595884879443
Te O
24 1
Selective dynamics
Cartesian
  1.6128156093497619  7.0139587200000006 15.5221539247299383   F   F   F
  1.6128156093497621  2.3379862400000007 11.2853828654025854   F   F   F
  1.6128156093497623  0.0000000000000000 13.4037683950662636   F   F   F
  1.6128156093497621  4.6759724800000004 13.4037683950662636   F   F   F
  1.6141231041580777  7.0599336475864858 20.2023417834850143   T   T   T
  1.6200822525840506  2.3894789222215791 16.1951748425921735   T   T   T
  1.6166467215104590  0.2483568076659139 18.1991313681183584   T   T   T
  1.6156256479586757  4.9571604207017845 17.9468504935985749   T   T   T
  4.8384468280492863  7.0139587200000006 15.5221539247299383   F   F   F
  4.8384468280492872  2.3379862400000007 11.2853828654025854   F   F   F
  4.8384468280492872  0.0000000000000000 13.4037683950662636   F   F   F
  4.8384468280492872  4.6759724800000004 13.4037683950662636   F   F   F
  4.5847849096245179  6.9186620736044189 20.1190297581840305   T   T   T
  5.0062476997228220  2.1838470500263525 16.1396002455107421   T   T   T
  4.7953499985161177 -0.0647979651366768 18.1157730895693732   T   T   T
  4.6629223321288880  4.4335768857786935 18.7163735161785354   T   T   T
  8.0640780467488113  7.0139587200000006 15.5221539247299383   F   F   F
  8.0640780467488113  2.3379862400000007 11.2853828654025854   F   F   F
  8.0640780467488113  0.0000000000000000 13.4037683950662636   F   F   F
  8.0640780467488113  4.6759724800000004 13.4037683950662636   F   F   F
  8.3403641283343788  6.9055694331590258 20.1125949178374022   T   T   T
  7.9066082781696352  2.1995122157789324 16.1467111975611672   T   T   T
  8.1334837702238403 -0.0589565843692981 18.1187895229860061   T   T   T
  8.2463790031133541  4.4333069660575166 18.6983308117533653   T   T   T
  6.4574315429685152  3.9265170654755703 19.5399165364427532   T   T   T
