Y Cu S                                  
   1.00000000000000     
    13.5443797292033210    0.0000000000000000    0.0000000000000008
    -6.7721898646016649   11.7297769239930698    0.0000000000000008
     0.0000000000000000    0.0000000000000000   58.1324000388725111
   Y    Cu   S 
    24    72    72
Selective dynamics
Direct
  0.9999239915916220  0.9998798334839591  0.6108774873472953   T   T   T
  0.0000000000000000  0.0000000000000000  0.3888307266666686   F   F   F
  0.1666666666666643  0.3333333333333357  0.3889470511111099   F   F   F
  0.1666666666666643  0.3333333333333357  0.4999418377777758   F   F   F
  0.3333358986979817  0.1666826364745830  0.4999963751953302   T   T   T
  0.3333314411088466  0.1666868337576375  0.6108078974131956   T   T   T
  0.5075832763333068  0.3331819800570486  0.6454002206452287   T   T   T
  0.3257364110199390  0.9925772289617498  0.6454022404142279   T   T   T
  0.1667274582442815  0.1743440802974874  0.6454068277059690   T   T   T
  0.3334213366666674  0.3357577533333327  0.3477250044444418   F   F   F
  0.1642422466666673  0.4976635833333347  0.3477250044444418   F   F   F
  0.0023364166666653  0.1665786633333326  0.3477250044444418   F   F   F
  0.1643302499999990  0.1667546700000031  0.4300527733333368   F   F   F
  0.0024244199999970  0.3356697500000010  0.4300527733333368   F   F   F
  0.3332453299999969  0.4975755800000030  0.4300527733333368   F   F   F
  0.0000880033333317  0.1690910866666684  0.4588361155555560   F   F   F
  0.3309089133333316  0.3309969166666704  0.4588361155555560   F   F   F
  0.1690030833333367  0.4999119966666683  0.4588361155555560   F   F   F
  0.3309969166666704  0.0000880033333317  0.5411638844444440   F   F   F
  0.1690910866666684  0.1690030833333296  0.5411638844444440   F   F   F
  0.4999119966666683  0.3309089133333316  0.5411638844444440   F   F   F
  0.1667546700000031  0.0024244199999970  0.5699472266666703   F   F   F
  0.4975755800000030  0.1643302499999990  0.5699472266666703   F   F   F
  0.3356697500000010  0.3332453299999969  0.5699472266666703   F   F   F
  0.1670297466666639  0.1671066433333337  0.3608713477777812   F   F   F
  0.3328933566666663  0.4999231033333302  0.3608713477777812   F   F   F
  0.0000768966666698  0.3329702533333361  0.3608713477777812   F   F   F
  0.4938482568319174  0.1604198418935496  0.6412857447333948   T   T   T
  0.1666864466835918  0.0063372518727505  0.6412903184135388   T   T   T
  0.3397056855880649  0.3333970680881961  0.6412917030002703   T   T   T
  0.3336964133333353  0.0004399766666694  0.4719824588888883   F   F   F
  0.4995600233333306  0.3332564366666659  0.4719824588888883   F   F   F
  0.1667435633333341  0.1663035866666647  0.4719824588888883   F   F   F
  0.1665897700000016  0.0003630799999996  0.4169064299999974   F   F   F
  0.3337733099999980  0.3334102299999984  0.4169064299999974   F   F   F
  0.4996369200000004  0.1662266900000020  0.4169064299999974   F   F   F
  0.0003630799999996  0.3337733099999980  0.5830935700000026   F   F   F
  0.1662266900000020  0.1665897700000016  0.5830935700000026   F   F   F
  0.3334102299999984  0.4996369200000004  0.5830935700000026   F   F   F
  0.3332564366666659  0.3336964133333353  0.5280175411111117   F   F   F
  0.0004399766666694  0.1667435633333341  0.5280175411111117   F   F   F
  0.1663035866666647  0.4995600233333306  0.5280175411111117   F   F   F
  0.9998626832346318  0.4999200026100254  0.6108811324056873   T   T   T
  0.0000000000000000  0.5000000000000000  0.3888307266666686   F   F   F
  0.1666666666666643  0.8333333333333357  0.3889470511111099   F   F   F
  0.1666666666666643  0.8333333333333357  0.4999418377777758   F   F   F
  0.3333411567924216  0.6667124497402668  0.5000048766196841   T   T   T
  0.3333720758978487  0.6668029741995625  0.6108154101329362   T   T   T
  0.5073167172175488  0.8331305407528546  0.6454095130410309   T   T   T
  0.3255420279126540  0.4922812175128541  0.6453522520840949   T   T   T
  0.1665652607754353  0.6742967587802369  0.6454466025527310   T   T   T
  0.3334213366666674  0.8357577533333327  0.3477250044444418   F   F   F
  0.1642422466666673  0.9976635833333347  0.3477250044444418   F   F   F
  0.0023364166666653  0.6665786633333326  0.3477250044444418   F   F   F
  0.1643302499999990  0.6667546700000031  0.4300527733333368   F   F   F
  0.0024244199999970  0.8356697500000010  0.4300527733333368   F   F   F
  0.3332453299999969  0.9975755800000030  0.4300527733333368   F   F   F
  0.0000880033333317  0.6690910866666684  0.4588361155555560   F   F   F
  0.3309089133333316  0.8309969166666704  0.4588361155555560   F   F   F
  0.1690030833333296  0.9999119966666683  0.4588361155555560   F   F   F
  0.3309969166666704  0.5000880033333317  0.5411638844444440   F   F   F
  0.1690910866666684  0.6690030833333367  0.5411638844444440   F   F   F
  0.4999119966666683  0.8309089133333316  0.5411638844444440   F   F   F
  0.1667546700000031  0.5024244199999970  0.5699472266666703   F   F   F
  0.4975755800000030  0.6643302499999990  0.5699472266666703   F   F   F
  0.3356697500000010  0.8332453299999969  0.5699472266666703   F   F   F
  0.1670297466666639  0.6671066433333337  0.3608713477777812   F   F   F
  0.3328933566666663  0.9999231033333302  0.3608713477777812   F   F   F
  0.0000768966666698  0.8329702533333361  0.3608713477777812   F   F   F
  0.4937442216782131  0.6605109890598158  0.6413041055984792   T   T   T
  0.1666970302390283  0.5065100195861305  0.6412817274882130   T   T   T
  0.3396512712804025  0.8334758814242562  0.6412473344790186   T   T   T
  0.3336964133333353  0.5004399766666694  0.4719824588888883   F   F   F
  0.4995600233333306  0.8332564366666659  0.4719824588888883   F   F   F
  0.1667435633333341  0.6663035866666647  0.4719824588888883   F   F   F
  0.1665897700000016  0.5003630799999996  0.4169064299999974   F   F   F
  0.3337733099999980  0.8334102299999984  0.4169064299999974   F   F   F
  0.4996369200000004  0.6662266900000020  0.4169064299999974   F   F   F
  0.0003630799999996  0.8337733099999980  0.5830935700000026   F   F   F
  0.1662266900000020  0.6665897700000016  0.5830935700000026   F   F   F
  0.3334102299999984  0.9996369200000004  0.5830935700000026   F   F   F
  0.3332564366666659  0.8336964133333353  0.5280175411111117   F   F   F
  0.0004399766666694  0.6667435633333341  0.5280175411111117   F   F   F
  0.1663035866666647  0.9995600233333306  0.5280175411111117   F   F   F
  0.5000675274780093  0.0000470941185498  0.6108846039640312   T   T   T
  0.5000000000000000  0.0000000000000000  0.3888307266666686   F   F   F
  0.6666666666666643  0.3333333333333357  0.3889470511111099   F   F   F
  0.6666666666666643  0.3333333333333357  0.4999418377777758   F   F   F
  0.8333329156360918  0.1666390412371541  0.5000189227008107   T   T   T
  0.8332232417593133  0.1666204134102927  0.6107979739704632   T   T   T
  0.0078378049843337  0.3333330230001295  0.6453529512977880   T   T   T
  0.8258050642700567  0.9925841328624756  0.6454228561412876   T   T   T
  0.6668417613889659  0.1742302163404474  0.6454024306972599   T   T   T
  0.8334213366666674  0.3357577533333327  0.3477250044444418   F   F   F
  0.6642422466666673  0.4976635833333347  0.3477250044444418   F   F   F
  0.5023364166666653  0.1665786633333326  0.3477250044444418   F   F   F
  0.6643302499999990  0.1667546700000031  0.4300527733333368   F   F   F
  0.5024244199999970  0.3356697500000010  0.4300527733333368   F   F   F
  0.8332453299999969  0.4975755800000030  0.4300527733333368   F   F   F
  0.5000880033333317  0.1690910866666684  0.4588361155555560   F   F   F
  0.8309089133333316  0.3309969166666704  0.4588361155555560   F   F   F
  0.6690030833333367  0.4999119966666683  0.4588361155555560   F   F   F
  0.8309969166666704  0.0000880033333317  0.5411638844444440   F   F   F
  0.6690910866666684  0.1690030833333296  0.5411638844444440   F   F   F
  0.9999119966666683  0.3309089133333316  0.5411638844444440   F   F   F
  0.6667546700000031  0.0024244199999970  0.5699472266666703   F   F   F
  0.9975755800000030  0.1643302499999990  0.5699472266666703   F   F   F
  0.8356697500000010  0.3332453299999969  0.5699472266666703   F   F   F
  0.6670297466666639  0.1671066433333337  0.3608713477777812   F   F   F
  0.8328933566666663  0.4999231033333302  0.3608713477777812   F   F   F
  0.5000768966666698  0.3329702533333361  0.3608713477777812   F   F   F
  0.9936064435228928  0.1603055996889964  0.6412254947688822   T   T   T
  0.6665391489140404  0.0060814327118450  0.6412246863476128   T   T   T
  0.8396450105517133  0.3332551359721379  0.6412931299793172   T   T   T
  0.8336964133333353  0.0004399766666694  0.4719824588888883   F   F   F
  0.9995600233333306  0.3332564366666659  0.4719824588888883   F   F   F
  0.6667435633333341  0.1663035866666647  0.4719824588888883   F   F   F
  0.6665897700000016  0.0003630799999996  0.4169064299999974   F   F   F
  0.8337733099999980  0.3334102299999984  0.4169064299999974   F   F   F
  0.9996369200000004  0.1662266900000020  0.4169064299999974   F   F   F
  0.5003630799999996  0.3337733099999980  0.5830935700000026   F   F   F
  0.6662266900000020  0.1665897700000016  0.5830935700000026   F   F   F
  0.8334102299999984  0.4996369200000004  0.5830935700000026   F   F   F
  0.8332564366666659  0.3336964133333353  0.5280175411111117   F   F   F
  0.5004399766666694  0.1667435633333341  0.5280175411111117   F   F   F
  0.6663035866666647  0.4995600233333306  0.5280175411111117   F   F   F
  0.5000079738168282  0.5001035696837164  0.6108807864959331   T   T   T
  0.5000000000000000  0.5000000000000000  0.3888307266666686   F   F   F
  0.6666666666666643  0.8333333333333357  0.3889470511111099   F   F   F
  0.6666666666666643  0.8333333333333357  0.4999418377777758   F   F   F
  0.8333339259360244  0.6666614617503086  0.5000286484613667   T   T   T
  0.8332651502105790  0.6667022665910025  0.6108050540347918   T   T   T
  0.0075603550052961  0.8333035090319143  0.6453658043038644   T   T   T
  0.8256681815653621  0.4922921694137514  0.6453776438210284   T   T   T
  0.6666281257985958  0.6741601716631962  0.6454227554380836   T   T   T
  0.8334213366666674  0.8357577533333327  0.3477250044444418   F   F   F
  0.6642422466666673  0.9976635833333347  0.3477250044444418   F   F   F
  0.5023364166666653  0.6665786633333326  0.3477250044444418   F   F   F
  0.6643302499999990  0.6667546700000031  0.4300527733333368   F   F   F
  0.5024244199999970  0.8356697500000010  0.4300527733333368   F   F   F
  0.8332453299999969  0.9975755800000030  0.4300527733333368   F   F   F
  0.5000880033333317  0.6690910866666684  0.4588361155555560   F   F   F
  0.8309089133333316  0.8309969166666704  0.4588361155555560   F   F   F
  0.6690030833333367  0.9999119966666683  0.4588361155555560   F   F   F
  0.8309969166666704  0.5000880033333317  0.5411638844444440   F   F   F
  0.6690910866666684  0.6690030833333367  0.5411638844444440   F   F   F
  0.9999119966666683  0.8309089133333316  0.5411638844444440   F   F   F
  0.6667546700000031  0.5024244199999970  0.5699472266666703   F   F   F
  0.9975755800000030  0.6643302499999990  0.5699472266666703   F   F   F
  0.8356697500000010  0.8332453299999969  0.5699472266666703   F   F   F
  0.6670297466666639  0.6671066433333337  0.3608713477777812   F   F   F
  0.8328933566666663  0.9999231033333302  0.3608713477777812   F   F   F
  0.5000768966666698  0.8329702533333361  0.3608713477777812   F   F   F
  0.9935192769570449  0.6604013776573865  0.6412306197603499   T   T   T
  0.6665828520280428  0.5063274100280637  0.6412155719970158   T   T   T
  0.8395067976648320  0.8333078945614218  0.6412573317171635   T   T   T
  0.8336964133333353  0.5004399766666694  0.4719824588888883   F   F   F
  0.9995600233333306  0.8332564366666659  0.4719824588888883   F   F   F
  0.6667435633333341  0.6663035866666647  0.4719824588888883   F   F   F
  0.6665897700000016  0.5003630799999996  0.4169064299999974   F   F   F
  0.8337733099999980  0.8334102299999984  0.4169064299999974   F   F   F
  0.9996369200000004  0.6662266900000020  0.4169064299999974   F   F   F
  0.5003630799999996  0.8337733099999980  0.5830935700000026   F   F   F
  0.6662266900000020  0.6665897700000016  0.5830935700000026   F   F   F
  0.8334102299999984  0.9996369200000004  0.5830935700000026   F   F   F
  0.8332564366666659  0.8336964133333353  0.5280175411111117   F   F   F
  0.5004399766666694  0.6667435633333341  0.5280175411111117   F   F   F
  0.6663035866666647  0.9995600233333306  0.5280175411111117   F   F   F
 
  0.00000000E+00  0.00000000E+00  0.00000000E+00
  0.00000000E+00  0.00000000E+00  0.00000000E+00
  0.00000000E+00  0.00000000E+00  0.00000000E+00
  0.00000000E+00  0.00000000E+00  0.00000000E+00
  0.00000000E+00  0.00000000E+00  0.00000000E+00
  0.00000000E+00  0.00000000E+00  0.00000000E+00
  0.00000000E+00  0.00000000E+00  0.00000000E+00
  0.00000000E+00  0.00000000E+00  0.00000000E+00
  0.00000000E+00  0.00000000E+00  0.00000000E+00
  0.00000000E+00  0.00000000E+00  0.00000000E+00
  0.00000000E+00  0.00000000E+00  0.00000000E+00
  0.00000000E+00  0.00000000E+00  0.00000000E+00
  0.00000000E+00  0.00000000E+00  0.00000000E+00
  0.00000000E+00  0.00000000E+00  0.00000000E+00
  0.00000000E+00  0.00000000E+00  0.00000000E+00
  0.00000000E+00  0.00000000E+00  0.00000000E+00
  0.00000000E+00  0.00000000E+00  0.00000000E+00
  0.00000000E+00  0.00000000E+00  0.00000000E+00
  0.00000000E+00  0.00000000E+00  0.00000000E+00
  0.00000000E+00  0.00000000E+00  0.00000000E+00
  0.00000000E+00  0.00000000E+00  0.00000000E+00
  0.00000000E+00  0.00000000E+00  0.00000000E+00
  0.00000000E+00  0.00000000E+00  0.00000000E+00
  0.00000000E+00  0.00000000E+00  0.00000000E+00
  0.00000000E+00  0.00000000E+00  0.00000000E+00
  0.00000000E+00  0.00000000E+00  0.00000000E+00
  0.00000000E+00  0.00000000E+00  0.00000000E+00
  0.00000000E+00  0.00000000E+00  0.00000000E+00
  0.00000000E+00  0.00000000E+00  0.00000000E+00
  0.00000000E+00  0.00000000E+00  0.00000000E+00
  0.00000000E+00  0.00000000E+00  0.00000000E+00
  0.00000000E+00  0.00000000E+00  0.00000000E+00
  0.00000000E+00  0.00000000E+00  0.00000000E+00
  0.00000000E+00  0.00000000E+00  0.00000000E+00
  0.00000000E+00  0.00000000E+00  0.00000000E+00
  0.00000000E+00  0.00000000E+00  0.00000000E+00
  0.00000000E+00  0.00000000E+00  0.00000000E+00
  0.00000000E+00  0.00000000E+00  0.00000000E+00
  0.00000000E+00  0.00000000E+00  0.00000000E+00
  0.00000000E+00  0.00000000E+00  0.00000000E+00
  0.00000000E+00  0.00000000E+00  0.00000000E+00
  0.00000000E+00  0.00000000E+00  0.00000000E+00
  0.00000000E+00  0.00000000E+00  0.00000000E+00
  0.00000000E+00  0.00000000E+00  0.00000000E+00
  0.00000000E+00  0.00000000E+00  0.00000000E+00
  0.00000000E+00  0.00000000E+00  0.00000000E+00
  0.00000000E+00  0.00000000E+00  0.00000000E+00
  0.00000000E+00  0.00000000E+00  0.00000000E+00
  0.00000000E+00  0.00000000E+00  0.00000000E+00
  0.00000000E+00  0.00000000E+00  0.00000000E+00
  0.00000000E+00  0.00000000E+00  0.00000000E+00
  0.00000000E+00  0.00000000E+00  0.00000000E+00
  0.00000000E+00  0.00000000E+00  0.00000000E+00
  0.00000000E+00  0.00000000E+00  0.00000000E+00
  0.00000000E+00  0.00000000E+00  0.00000000E+00
  0.00000000E+00  0.00000000E+00  0.00000000E+00
  0.00000000E+00  0.00000000E+00  0.00000000E+00
  0.00000000E+00  0.00000000E+00  0.00000000E+00
  0.00000000E+00  0.00000000E+00  0.00000000E+00
  0.00000000E+00  0.00000000E+00  0.00000000E+00
  0.00000000E+00  0.00000000E+00  0.00000000E+00
  0.00000000E+00  0.00000000E+00  0.00000000E+00
  0.00000000E+00  0.00000000E+00  0.00000000E+00
  0.00000000E+00  0.00000000E+00  0.00000000E+00
  0.00000000E+00  0.00000000E+00  0.00000000E+00
  0.00000000E+00  0.00000000E+00  0.00000000E+00
  0.00000000E+00  0.00000000E+00  0.00000000E+00
  0.00000000E+00  0.00000000E+00  0.00000000E+00
  0.00000000E+00  0.00000000E+00  0.00000000E+00
  0.00000000E+00  0.00000000E+00  0.00000000E+00
  0.00000000E+00  0.00000000E+00  0.00000000E+00
  0.00000000E+00  0.00000000E+00  0.00000000E+00
  0.00000000E+00  0.00000000E+00  0.00000000E+00
  0.00000000E+00  0.00000000E+00  0.00000000E+00
  0.00000000E+00  0.00000000E+00  0.00000000E+00
  0.00000000E+00  0.00000000E+00  0.00000000E+00
  0.00000000E+00  0.00000000E+00  0.00000000E+00
  0.00000000E+00  0.00000000E+00  0.00000000E+00
  0.00000000E+00  0.00000000E+00  0.00000000E+00
  0.00000000E+00  0.00000000E+00  0.00000000E+00
  0.00000000E+00  0.00000000E+00  0.00000000E+00
  0.00000000E+00  0.00000000E+00  0.00000000E+00
  0.00000000E+00  0.00000000E+00  0.00000000E+00
  0.00000000E+00  0.00000000E+00  0.00000000E+00
  0.00000000E+00  0.00000000E+00  0.00000000E+00
  0.00000000E+00  0.00000000E+00  0.00000000E+00
  0.00000000E+00  0.00000000E+00  0.00000000E+00
  0.00000000E+00  0.00000000E+00  0.00000000E+00
  0.00000000E+00  0.00000000E+00  0.00000000E+00
  0.00000000E+00  0.00000000E+00  0.00000000E+00
  0.00000000E+00  0.00000000E+00  0.00000000E+00
  0.00000000E+00  0.00000000E+00  0.00000000E+00
  0.00000000E+00  0.00000000E+00  0.00000000E+00
  0.00000000E+00  0.00000000E+00  0.00000000E+00
  0.00000000E+00  0.00000000E+00  0.00000000E+00
  0.00000000E+00  0.00000000E+00  0.00000000E+00
  0.00000000E+00  0.00000000E+00  0.00000000E+00
  0.00000000E+00  0.00000000E+00  0.00000000E+00
  0.00000000E+00  0.00000000E+00  0.00000000E+00
  0.00000000E+00  0.00000000E+00  0.00000000E+00
  0.00000000E+00  0.00000000E+00  0.00000000E+00
  0.00000000E+00  0.00000000E+00  0.00000000E+00
  0.00000000E+00  0.00000000E+00  0.00000000E+00
  0.00000000E+00  0.00000000E+00  0.00000000E+00
  0.00000000E+00  0.00000000E+00  0.00000000E+00
  0.00000000E+00  0.00000000E+00  0.00000000E+00
  0.00000000E+00  0.00000000E+00  0.00000000E+00
  0.00000000E+00  0.00000000E+00  0.00000000E+00
  0.00000000E+00  0.00000000E+00  0.00000000E+00
  0.00000000E+00  0.00000000E+00  0.00000000E+00
  0.00000000E+00  0.00000000E+00  0.00000000E+00
  0.00000000E+00  0.00000000E+00  0.00000000E+00
  0.00000000E+00  0.00000000E+00  0.00000000E+00
  0.00000000E+00  0.00000000E+00  0.00000000E+00
  0.00000000E+00  0.00000000E+00  0.00000000E+00
  0.00000000E+00  0.00000000E+00  0.00000000E+00
  0.00000000E+00  0.00000000E+00  0.00000000E+00
  0.00000000E+00  0.00000000E+00  0.00000000E+00
  0.00000000E+00  0.00000000E+00  0.00000000E+00
  0.00000000E+00  0.00000000E+00  0.00000000E+00
  0.00000000E+00  0.00000000E+00  0.00000000E+00
  0.00000000E+00  0.00000000E+00  0.00000000E+00
  0.00000000E+00  0.00000000E+00  0.00000000E+00
  0.00000000E+00  0.00000000E+00  0.00000000E+00
  0.00000000E+00  0.00000000E+00  0.00000000E+00
  0.00000000E+00  0.00000000E+00  0.00000000E+00
  0.00000000E+00  0.00000000E+00  0.00000000E+00
  0.00000000E+00  0.00000000E+00  0.00000000E+00
  0.00000000E+00  0.00000000E+00  0.00000000E+00
  0.00000000E+00  0.00000000E+00  0.00000000E+00
  0.00000000E+00  0.00000000E+00  0.00000000E+00
  0.00000000E+00  0.00000000E+00  0.00000000E+00
  0.00000000E+00  0.00000000E+00  0.00000000E+00
  0.00000000E+00  0.00000000E+00  0.00000000E+00
  0.00000000E+00  0.00000000E+00  0.00000000E+00
  0.00000000E+00  0.00000000E+00  0.00000000E+00
  0.00000000E+00  0.00000000E+00  0.00000000E+00
  0.00000000E+00  0.00000000E+00  0.00000000E+00
  0.00000000E+00  0.00000000E+00  0.00000000E+00
  0.00000000E+00  0.00000000E+00  0.00000000E+00
  0.00000000E+00  0.00000000E+00  0.00000000E+00
  0.00000000E+00  0.00000000E+00  0.00000000E+00
  0.00000000E+00  0.00000000E+00  0.00000000E+00
  0.00000000E+00  0.00000000E+00  0.00000000E+00
  0.00000000E+00  0.00000000E+00  0.00000000E+00
  0.00000000E+00  0.00000000E+00  0.00000000E+00
  0.00000000E+00  0.00000000E+00  0.00000000E+00
  0.00000000E+00  0.00000000E+00  0.00000000E+00
  0.00000000E+00  0.00000000E+00  0.00000000E+00
  0.00000000E+00  0.00000000E+00  0.00000000E+00
  0.00000000E+00  0.00000000E+00  0.00000000E+00
  0.00000000E+00  0.00000000E+00  0.00000000E+00
  0.00000000E+00  0.00000000E+00  0.00000000E+00
  0.00000000E+00  0.00000000E+00  0.00000000E+00
  0.00000000E+00  0.00000000E+00  0.00000000E+00
  0.00000000E+00  0.00000000E+00  0.00000000E+00
  0.00000000E+00  0.00000000E+00  0.00000000E+00
  0.00000000E+00  0.00000000E+00  0.00000000E+00
  0.00000000E+00  0.00000000E+00  0.00000000E+00
  0.00000000E+00  0.00000000E+00  0.00000000E+00
  0.00000000E+00  0.00000000E+00  0.00000000E+00
  0.00000000E+00  0.00000000E+00  0.00000000E+00
  0.00000000E+00  0.00000000E+00  0.00000000E+00
  0.00000000E+00  0.00000000E+00  0.00000000E+00
  0.00000000E+00  0.00000000E+00  0.00000000E+00
  0.00000000E+00  0.00000000E+00  0.00000000E+00
  0.00000000E+00  0.00000000E+00  0.00000000E+00
  0.00000000E+00  0.00000000E+00  0.00000000E+00
