Y Cu S
 1.0000000000000000
    13.5443797292033210    0.0000000000000000    0.0000000000000008
    -6.7721898646016649   11.7297769239930698    0.0000000000000008
     0.0000000000000000    0.0000000000000000   58.1324000388725111
Y Cu S
24 72 72
Selective dynamics
Cartesian
 -0.0002156962837034 -0.0014095264268690 35.5117744692140391   T   T   T
  0.0000000000000000  0.0000000000000000 22.6036633499921642   F   F   F
 -0.0000000000000018  3.9099256413310237 22.6104255691309035   F   F   F
 -0.0000000000000018  3.9099256413310237 29.0628189098668912   F   F   F
  3.3860215280024564  1.9551501429498732 29.0659893008409824   T   T   T
  3.3859327279248186  1.9551993761438073 35.5077290393265770   T   T   T
  4.6185290104411454  3.9081503011635230 37.5186638117248776   T   T   T
  4.4621660572744215 -0.0870674484365638 37.5187812257446467   T   T   T
  1.0775287922015293  2.0450171699082693 37.5190478960231530   T   T   T
  2.2421699395464540  3.9383635471010909 20.2140890618831683   F   F   F
 -1.1457129186005370  5.8374828156950382 20.2140890618831683   F   F   F
 -1.0964570209459223  1.9539305611969398 20.2140890618831683   F   F   F
  1.0964570209459206  1.9559950801340826 24.9999998572398994   F   F   F
 -2.2403820137002977  3.9373312876325186 24.9999998572398994   F   F   F
  1.1439249927543740  5.8364505562264677 24.9999998572398994   F   F   F
 -1.1439249927543762  1.9834007264355795 26.6732446217578918   F   F   F
  2.2403820137002950  3.8825199950295266 26.6732446217578918   F   F   F
 -1.0964570209459232  5.8638562025279644 26.6732446217578918   F   F   F
  4.4825519532467517  0.0010322594685708 31.4591554171146193   F   F   F
  1.1457129186005330  1.9823684669670081 31.4591554171146193   F   F   F
  4.5300199250552033  3.8814877355609565 31.4591554171146193   F   F   F
  2.2421699395464545  0.0284379057700671 33.1324001816326188   F   F   F
  5.6264769460011257  1.9275571743640150 33.1324001816326188   F   F   F
  2.2896379113549075  3.9088933818624527 33.1324001816326188   F   F   F
  1.1306363986363610  1.9601236488172746 20.9783175515848619   F   F   F
  1.1232598585482392  5.8639864812503353 20.9783175515848619   F   F   F
 -2.2538962571846053  3.9056667939254597 20.9783175515848619   F   F   F
  5.6024746917841437  1.8816889595935555 37.2794794520681734   T   T   T
  2.2147474566921423  0.0743345507785083 37.2797453310717373   T   T   T
  2.3432745563793005  3.9106732357878871 37.2798258204215216   T   T   T
  4.5167313309371906  0.0051608281517622 27.4374731114595853   F   F   F
  4.5093547908490716  3.9090236605848236 27.4374731114595853   F   F   F
  1.1321986751162265  1.9507039732599483 27.4374731114595853   F   F   F
  2.2538962571846031  0.0042588474055642 24.2357713675382058   F   F   F
  2.2628350737525871  3.9108276220772225 24.2357713675382058   F   F   F
  5.6415534659652975  1.9498019925137484 24.2357713675382058   F   F   F
 -2.2554585336644704  3.9150864694827865 33.8966286713343052   F   F   F
  1.1232598585482405  1.9540608399193127 33.8966286713343052   F   F   F
  1.1321986751162254  5.8606296145909704 33.8966286713343052   F   F   F
  2.2538962571846017  3.9141844887365864 30.6949269274129293   F   F   F
 -1.1232598585482434  1.9558648014117104 30.6949269274129293   F   F   F
 -1.1306363986363630  5.8597276338447717 30.6949269274129293   F   F   F
 -3.3874130452005855  5.8639501104576004 35.5119863652068730   T   T   T
 -3.3860949323008325  5.8648884619965349 22.6036633499921642   F   F   F
 -3.3860949323008342  9.7748141033275591 22.6104255691309035   F   F   F
 -3.3860949323008342  9.7748141033275591 29.0628189098668912   F   F   F
 -0.0002040877663236  7.8203883079022383 29.0664835090423992   T   T   T
 -0.0003983564872700  7.8214501396159797 35.5081657717556567   T   T   T
  1.2291720569907461  9.7724353915967281 37.5192040009952734   T   T   T
  1.0754429720895700  5.7743488652974539 37.5158752841399519   T   T   T
 -2.3104425339089558  7.9093505610637305 37.5213601033266286   T   T   T
 -1.1439249927543784  9.8032520090976263 20.2140890618831683   F   F   F
 -4.5318078509013695 11.7023712776915723 20.2140890618831683   F   F   F
 -4.4825519532467553  7.8188190231934751 20.2140890618831683   F   F   F
 -2.2896379113549119  7.8208835421306180 24.9999998572398994   F   F   F
 -5.6264769460011301  9.8022197496290531 24.9999998572398994   F   F   F
 -2.2421699395464585 11.7013390182230026 24.9999998572398994   F   F   F
 -4.5300199250552087  7.8482891884321146 26.6732446217578918   F   F   F
 -1.1457129186005375  9.7474084570260615 26.6732446217578918   F   F   F
 -4.4825519532467553 11.7287446645244984 26.6732446217578918   F   F   F
  1.0964570209459192  5.8659207214651055 31.4591554171146193   F   F   F
 -2.2403820137002994  7.8472569289635432 31.4591554171146193   F   F   F
  1.1439249927543709  9.7463761975574918 31.4591554171146193   F   F   F
 -1.1439249927543780  5.8933263677666021 33.1324001816326188   F   F   F
  2.2403820137002932  7.7924456363605499 33.1324001816326188   F   F   F
 -1.0964570209459250  9.7737818438589876 33.1324001816326188   F   F   F
 -2.2554585336644717  7.8250121108138098 20.9783175515848619   F   F   F
 -2.2628350737525933 11.7288749432468702 20.9783175515848619   F   F   F
 -5.6399911894854373  9.7705552559219946 20.9783175515848619   F   F   F
  2.2143534019408206  7.7476465575176272 37.2805468132223012   T   T   T
 -1.1723741436724771  5.9412495395126523 37.2792459199639978   T   T   T
 -1.0440911228428957  9.7764861606350273 37.2772465717948052   T   T   T
  1.1306363986363581  5.8700492901482972 27.4374731114595853   F   F   F
  1.1232598585482392  9.7739121225813577 27.4374731114595853   F   F   F
 -2.2538962571846062  7.8155924352564830 27.4374731114595853   F   F   F
 -1.1321986751162294  5.8691473094020994 24.2357713675382058   F   F   F
 -1.1232598585482454  9.7757160840737569 24.2357713675382058   F   F   F
  2.2554585336644650  7.8146904545102833 24.2357713675382058   F   F   F
 -5.6415534659653028  9.7799749314793214 33.8966286713343052   F   F   F
 -2.2628350737525920  7.8189493019158478 33.8966286713343052   F   F   F
 -2.2538962571846071 11.7255180765875053 33.8966286713343052   F   F   F
 -1.1321986751162307  9.7790729507331218 30.6949269274129293   F   F   F
 -4.5093547908490761  7.8207532634082453 30.6949269274129293   F   F   F
 -4.5167313309371959 11.7246160958413057 30.6949269274129293   F   F   F
  6.7727855520936835  0.0005524035050257 35.5121881752254254   T   T   T
  6.7721898646016605  0.0000000000000000 22.6036633499921642   F   F   F
  6.7721898646016587  3.9099256413310237 22.6104255691309035   F   F   F
  6.7721898646016587  3.9099256413310237 29.0628189098668912   F   F   F
 10.1584662241062453  1.9546387805398784 29.0673000414494425   T   T   T
 10.1571069106530096  1.9544202802861979 35.5071521657838360   T   T   T
 11.3931434162560645  3.9099220011917803 37.5159159311098165   T   T   T
 11.2352390330387752 -0.0869864672211308 37.5199796674370418   T   T   T
  7.8520379303348014  2.0436815710924838 37.5187922873539037   T   T   T
  9.0143598041481141  3.9383635471010909 20.2140890618831683   F   F   F
  5.6264769460011230  5.8374828156950382 20.2140890618831683   F   F   F
  5.6757328436557382  1.9539305611969398 20.2140890618831683   F   F   F
  7.8686468855475811  1.9559950801340826 24.9999998572398994   F   F   F
  4.5318078509013624  3.9373312876325186 24.9999998572398994   F   F   F
  7.9161148573560345  5.8364505562264677 24.9999998572398994   F   F   F
  5.6282648718472839  1.9834007264355795 26.6732446217578918   F   F   F
  9.0125718783019551  3.8825199950295266 26.6732446217578918   F   F   F
  5.6757328436557373  5.8638562025279644 26.6732446217578918   F   F   F
 11.2547418178484122  0.0010322594685708 31.4591554171146193   F   F   F
  7.9179027832021935  1.9823684669670081 31.4591554171146193   F   F   F
 11.3022097896568638  3.8814877355609565 31.4591554171146193   F   F   F
  9.0143598041481141  0.0284379057700671 33.1324001816326188   F   F   F
 12.3986668106027871  1.9275571743640150 33.1324001816326188   F   F   F
  9.0618277759565675  3.9088933818624527 33.1324001816326188   F   F   F
  7.9028262632380217  1.9601236488172746 20.9783175515848619   F   F   F
  7.8954497231499001  5.8639864812503353 20.9783175515848619   F   F   F
  4.5182936074170552  3.9056667939254597 20.9783175515848619   F   F   F
 12.3721630150045971  1.8803489240188702 37.2759769770286056   T   T   T
  8.9866747202983195  0.0713338490881828 37.2759299815601679   T   T   T
  9.1156038064864244  3.9090084037281274 37.2799087741381499   T   T   T
 11.2889211955388511  0.0051608281517622 27.4374731114595853   F   F   F
 11.2815446554507322  3.9090236605848236 27.4374731114595853   F   F   F
  7.9043885397178872  1.9507039732599483 27.4374731114595853   F   F   F
  9.0260861217862640  0.0042588474055642 24.2357713675382058   F   F   F
  9.0350249383542476  3.9108276220772225 24.2357713675382058   F   F   F
 12.4137433305669589  1.9498019925137484 24.2357713675382058   F   F   F
  4.5167313309371906  3.9150864694827865 33.8966286713343052   F   F   F
  7.8954497231499010  1.9540608399193127 33.8966286713343052   F   F   F
  7.9043885397178855  5.8606296145909704 33.8966286713343052   F   F   F
  9.0260861217862622  3.9141844887365864 30.6949269274129293   F   F   F
  5.6489300060534173  1.9558648014117104 30.6949269274129293   F   F   F
  5.6415534659652975  5.8597276338447717 30.6949269274129293   F   F   F
  3.3855015391415217  5.8661033112825782 35.5119662566428147   T   T   T
  3.3860949323008280  5.8648884619965349 22.6036633499921642   F   F   F
  3.3860949323008263  9.7748141033275591 22.6104255691309035   F   F   F
  3.3860949323008263  9.7748141033275591 29.0628189098668912   F   F   F
  6.7722331397193187  7.8197902301542364 29.0678654232528686   T   T   T
  6.7710252770491905  7.8202688618330178 35.5075637469154657   T   T   T
  8.0034904702797309  9.7744642709249643 37.5166631072007704   T   T   T
  7.8492673413154659  5.7744773286519395 37.5173513667488123   T   T   T
  4.4635237923277220  7.9077484246501637 37.5199738133179608   T   T   T
  5.6282648718472821  9.8032520090976263 20.2140890618831683   F   F   F
  2.2403820137002910 11.7023712776915723 20.2140890618831683   F   F   F
  2.2896379113549057  7.8188190231934751 20.2140890618831683   F   F   F
  4.4825519532467482  7.8208835421306180 24.9999998572398994   F   F   F
  1.1457129186005304  9.8022197496290531 24.9999998572398994   F   F   F
  4.5300199250552016 11.7013390182230026 24.9999998572398994   F   F   F
  2.2421699395464518  7.8482891884321146 26.6732446217578918   F   F   F
  5.6264769460011230  9.7474084570260615 26.6732446217578918   F   F   F
  2.2896379113549048 11.7287446645244984 26.6732446217578918   F   F   F
  7.8686468855475802  5.8659207214651055 31.4591554171146193   F   F   F
  4.5318078509013606  7.8472569289635432 31.4591554171146193   F   F   F
  7.9161148573560318  9.7463761975574918 31.4591554171146193   F   F   F
  5.6282648718472821  5.8933263677666021 33.1324001816326188   F   F   F
  9.0125718783019533  7.7924456363605499 33.1324001816326188   F   F   F
  5.6757328436557355  9.7737818438589876 33.1324001816326188   F   F   F
  4.5167313309371888  7.8250121108138098 20.9783175515848619   F   F   F
  4.5093547908490672 11.7288749432468702 20.9783175515848619   F   F   F
  1.1321986751162227  9.7705552559219946 20.9783175515848619   F   F   F
  8.9842388390494090  7.7463608402188848 37.2762749050829569   T   T   T
  5.5995059144811252  5.9391075701323341 37.2754001424849974   T   T   T
  5.7272795751785788  9.7745157122077835 37.2778277352421554   T   T   T
  7.9028262632380191  5.8700492901482972 27.4374731114595853   F   F   F
  7.8954497231499001  9.7739121225813577 27.4374731114595853   F   F   F
  4.5182936074170543  7.8155924352564830 27.4374731114595853   F   F   F
  5.6399911894854311  5.8691473094020994 24.2357713675382058   F   F   F
  5.6489300060534156  9.7757160840737569 24.2357713675382058   F   F   F
  9.0276483982661251  7.8146904545102833 24.2357713675382058   F   F   F
  1.1306363986363577  9.7799749314793214 33.8966286713343052   F   F   F
  4.5093547908490681  7.8189493019158478 33.8966286713343052   F   F   F
  4.5182936074170534 11.7255180765875053 33.8966286713343052   F   F   F
  5.6399911894854302  9.7790729507331218 30.6949269274129293   F   F   F
  2.2628350737525844  7.8207532634082453 30.6949269274129293   F   F   F
  2.2554585336644650 11.7246160958413057 30.6949269274129293   F   F   F
