Rb Se
 1.0000000000000000
    13.0227245800000002    0.0000000000000000    0.0000000000000008
    -0.0000000000000010   16.6933679746582690    0.0000000000000010
     0.0000000000000000    0.0000000000000000   38.5516819754017206
Rb Se
24 24
Selective dynamics
Cartesian
  3.2556811449999992 10.9551695932742454 15.3603509974685792   F   F   F
  3.2558723666667109  2.5959646607870805 20.1815641083612398   T   T   T
  3.2556811449999996  8.3466839873291345 19.8783805977776034   F   F   F
  3.2556811450000001  0.0000000000000000 15.0594203508523847   F   F   F
  3.2556811449999996  5.7381983813840236 15.3603509974685792   F   F   F
  3.2558722382386969 14.0974016811244720 20.1815641534976429   T   T   T
  0.0006167758870097 13.7603270010726764 23.1675165520713797   T   T   T
 -0.0000000000000003  5.4038825545602185 18.5653880636190038   F   F   F
  0.0005302941208351  8.3466821815149626 22.9426735528427557   T   T   T
  0.0000000000000000  0.0000000000000000 18.2872667124019657   F   F   F
  0.0006170800206744  2.9330438937984544 23.1675149222859780   T   T   T
 -0.0000000000000007 11.2894854200980514 18.5653880636190038   F   F   F
  2.0353872790724021  5.5556436116968033 21.7959715651273669   T   T   T
  2.0058366134321295 13.9111399788818915 16.8663608642382528   F   F   F
  4.4760034360567289  5.5592187185212305 21.7992925675394886   T   T   T
  4.5055256765678697 13.9111399788818897 16.8663608642382528   F   F   F
  4.4759926305611790 11.1340995322754459 21.7992625094817427   T   T   T
  4.5055256765678706  2.7822279957763785 16.8663608642382528   F   F   F
  2.0353803991015047 11.1377711554670658 21.7959872771940368   T   T   T
  2.0058366134321304  2.7822279957763780 16.8663608642382528   F   F   F
  5.2684667493816404  8.3466839873291345 16.8663608642382528   F   F   F
  5.2891354915121518 -0.0000061438023720 21.7939695712890185   T   T   T
  1.2428955406183586  8.3466839873291345 16.8663608642382528   F   F   F
  1.2219966464443346  0.0000021168702193 21.7891801341434999   T   T   T
  9.7670434349999997 10.9551695932742454 15.3603509974685792   F   F   F
  9.7670600159310599  2.5958905633515084 20.1814384590643066   T   T   T
  9.7670434349999997  8.3466839873291345 19.8783805977776034   F   F   F
  9.7670434349999997  0.0000000000000000 15.0594203508523847   F   F   F
  9.7670434349999997  5.7381983813840236 15.3603509974685792   F   F   F
  9.7670623256222999 14.0974791320707364 20.1814367187471042   T   T   T
  6.5112138849313279 13.7605161568490306 23.1679556442099290   T   T   T
  6.5113622900000001  5.4038825545602185 18.5653880636190038   F   F   F
  6.5106276042826376  8.3466809853330091 22.9437776795271233   T   T   T
  6.5113622900000001  0.0000000000000000 18.2872667124019657   F   F   F
  6.5112120839177470  2.9328510681339841 23.1679545466753787   T   T   T
  6.5113622899999992 11.2894854200980514 18.5653880636190038   F   F   F
  8.5472900163773584  5.5565730594172127 21.7956950364938180   T   T   T
  8.5171989034321296 13.9111399788818915 16.8663608642382528   F   F   F
 10.9878307418210781  5.5602020757179043 21.7990417622828332   T   T   T
 11.0168879665678698 13.9111399788818897 16.8663608642382528   F   F   F
 10.9878285096154880 11.1331265322188990 21.7990046997916593   T   T   T
 11.0168879665678716  2.7822279957763785 16.8663608642382528   F   F   F
  8.5472915205797317 11.1368306478763532 21.7957232492814015   T   T   T
  8.5171989034321314  2.7822279957763780 16.8663608642382528   F   F   F
 11.7798290393816405  8.3466839873291345 16.8663608642382528   F   F   F
 11.8002469908947241 -0.0000069859258076 21.7954245008337253   T   T   T
  7.7542578306183589  8.3466839873291345 16.8663608642382528   F   F   F
  7.7337287447316942  0.0000026701876679 21.7891854788073047   T   T   T
