Cu Se H O
 1.0000000000000000
    12.9865198799999995    0.0000000000000000    0.0000000000000008
    -0.0000000000000008   12.9865198799999995    0.0000000000000008
     0.0000000000000000    0.0000000000000000   30.9134276499999991
Cu Se H O
48 32 1 1
Selective dynamics
Cartesian
  0.0000000000000000  0.0000000000000000 13.2486118500000014   F   F   F
  3.2466299699999999  3.2466299699999999 13.2486118500000014   F   F   F
  5.5464823183631573  2.2998523483631566 12.1664235009646742   F   F   F
  4.1934075916368432  5.5464823183631573 14.3308001990353286   F   F   F
  2.2998523483631566  0.9467776216368439 14.3308001990353286   F   F   F
  0.9467776216368436  4.1934075916368432 12.1664235009646742   F   F   F
  4.7340956327718953  1.4874656627718958 14.4042686978920038   F   F   F
  5.0057942772281043  4.7340956327718953 12.0929550021079990   F   F   F
  1.4874656627718958  1.7591643072281049 12.0929550021079990   F   F   F
  1.7591643072281047  5.0057942772281043 14.4042686978920038   F   F   F
  0.0011889108543528 -0.0248127849354205 17.8270437451912649   T   T   T
  3.2665898919436094  3.2647706157704723 17.6662112232854334   T   T   T
  5.5464823183631573  2.2998523483631566 16.5826274509646723   F   F   F
  3.6301352902236079  5.0757543642887661 19.6181336236597943   T   T   T
  2.4330276633520320  0.8527031797783057 18.4890181533603588   T   T   T
  0.9467776216368436  4.1934075916368432 16.5826274509646723   F   F   F
  4.7617401965765378  1.5075750891330553 18.8853284618902961   T   T   T
  5.0057942772281043  4.7340956327718953 16.5091589521080024   F   F   F
  1.4874656627718958  1.7591643072281049 16.5091589521080024   F   F   F
  1.4417840300209834  4.9235725082133817 18.9324799382897453   T   T   T
 -0.0000000000000004  6.4932599399999997 13.2486118500000014   F   F   F
  3.2466299699999994  9.7398899099999987 13.2486118500000014   F   F   F
  5.5464823183631573  8.7931122883631563 12.1664235009646742   F   F   F
  4.1934075916368432 12.0397422583631570 14.3308001990353286   F   F   F
  2.2998523483631561  7.4400375616368439 14.3308001990353286   F   F   F
  0.9467776216368432 10.6866675316368429 12.1664235009646742   F   F   F
  4.7340956327718953  7.9807256027718960 14.4042686978920038   F   F   F
  5.0057942772281043 11.2273555727718950 12.0929550021079990   F   F   F
  1.4874656627718954  8.2524242472281042 12.0929550021079990   F   F   F
  1.7591643072281042 11.4990542172281032 14.4042686978920038   F   F   F
  0.0209162502833347  6.7023484864567688 17.8671967570109764   T   T   T
  3.1748348457131628  9.7731111261883932 17.7778755198571226   T   T   T
  5.5464823183631573  8.7931122883631563 16.5826274509646723   F   F   F
  4.1125337637357564 12.1058502407835196 18.5357636347628230   T   T   T
  2.6222780058971966  7.0065772309880305 18.3661733783567449   T   T   T
  0.9467776216368432 10.6866675316368429 16.5826274509646723   F   F   F
  4.7091094197569685  8.0658266358235107 18.7408421679532893   T   T   T
  5.0057942772281043 11.2273555727718950 16.5091589521080024   F   F   F
  1.4874656627718954  8.2524242472281042 16.5091589521080024   F   F   F
  1.7310065108466117 11.4840728594135264 18.9186602424501160   T   T   T
  6.4932599399999997  0.0000000000000000 13.2486118500000014   F   F   F
  9.7398899099999987  3.2466299699999999 13.2486118500000014   F   F   F
 12.0397422583631570  2.2998523483631566 12.1664235009646742   F   F   F
 10.6866675316368429  5.5464823183631573 14.3308001990353286   F   F   F
  8.7931122883631563  0.9467776216368439 14.3308001990353286   F   F   F
  7.4400375616368430  4.1934075916368432 12.1664235009646742   F   F   F
 11.2273555727718950  1.4874656627718958 14.4042686978920038   F   F   F
 11.4990542172281032  4.7340956327718953 12.0929550021079990   F   F   F
  7.9807256027718960  1.7591643072281049 12.0929550021079990   F   F   F
  8.2524242472281042  5.0057942772281043 14.4042686978920038   F   F   F
  6.5008295243224818  0.0094523918851337 17.8101043162434571   T   T   T
  9.8305900845363219  3.2174298977015914 17.7422126165376604   T   T   T
 12.0397422583631570  2.2998523483631566 16.5826274509646723   F   F   F
 10.6906722104785814  5.7355353405203253 18.4846844313626733   T   T   T
  8.9287745035981718  0.8509051188264639 18.4924104253270905   T   T   T
  7.4400375616368430  4.1934075916368432 16.5826274509646723   F   F   F
 11.2913219794557982  1.4780582684202126 18.8946842738927643   T   T   T
 11.4990542172281032  4.7340956327718953 16.5091589521080024   F   F   F
  7.9807256027718960  1.7591643072281049 16.5091589521080024   F   F   F
  8.3818933271431018  4.8576983719711810 18.8915931978894349   T   T   T
  6.4932599399999997  6.4932599399999997 13.2486118500000014   F   F   F
  9.7398899099999987  9.7398899099999987 13.2486118500000014   F   F   F
 12.0397422583631570  8.7931122883631563 12.1664235009646742   F   F   F
 10.6866675316368429 12.0397422583631570 14.3308001990353286   F   F   F
  8.7931122883631563  7.4400375616368439 14.3308001990353286   F   F   F
  7.4400375616368430 10.6866675316368429 12.1664235009646742   F   F   F
 11.2273555727718950  7.9807256027718960 14.4042686978920038   F   F   F
 11.4990542172281032 11.2273555727718950 12.0929550021079990   F   F   F
  7.9807256027718960  8.2524242472281042 12.0929550021079990   F   F   F
  8.2524242472281042 11.4990542172281032 14.4042686978920038   F   F   F
  6.0978374414208627  5.9272655937184862 18.4624813717502612   T   T   T
  9.6641567555435692  9.7028194924634015 17.7412577870683954   T   T   T
 12.0397422583631570  8.7931122883631563 16.5826274509646723   F   F   F
 10.5775774397834113 12.0807593375287698 18.5214579984506216   T   T   T
  8.7625044853042002  7.1925780694272436 18.4430439335894896   T   T   T
  7.4400375616368430 10.6866675316368429 16.5826274509646723   F   F   F
 11.1761701101680693  8.0764439970019577 18.9107036874606109   T   T   T
 11.4990542172281032 11.2273555727718950 16.5091589521080024   F   F   F
  7.9807256027718960  8.2524242472281042 16.5091589521080024   F   F   F
  8.2170916802223513 11.4804540100667047 18.8902083390507158   T   T   T
  5.4974159370834750  5.7477440990229054 20.9982251240382709   T   T   T
  5.4057749711181335  5.1118937162372138 20.2634145527347656   T   T   T
