Na Bi Se O                              
   1.00000000000000     
    11.9801775753655839    0.0000000000000000    0.0000000000000007
    -0.0000000000000008   12.4298486419954219    0.0000000000000008
     0.0000000000000000    0.0000000000000000   35.9405327260967482
   Na   Bi   Se   O 
    16    16    32     1
Selective dynamics
Direct
  0.0000000000000000  0.0000000000000000  0.4583333333333357   F   F   F
  0.2500000000000000  0.7500000000000000  0.4583333333333357   F   F   F
  0.2500000000000000  0.5000000000000000  0.3750000000000000   F   F   F
  0.0000000000000000  0.2500000000000000  0.3750000000000000   F   F   F
  0.2500000000000000  0.0000000000000000  0.3750000000000000   F   F   F
  0.0000000000000000  0.7500000000000000  0.3750000000000000   F   F   F
  0.0000000000000000  0.5000000000000000  0.4583333333333357   F   F   F
  0.2500000000000000  0.2500000000000000  0.4583333333333357   F   F   F
  0.2500000000000000  0.7598766449999985  0.3750000000000000   F   F   F
  0.0000000000000000  0.5098766449999985  0.3750000000000000   F   F   F
  0.0000000000000000  0.7401233550000015  0.4583333333333357   F   F   F
  0.0000000000000000  0.9901233550000015  0.3750000000000000   F   F   F
  0.0000000000000000  0.2598766449999985  0.4583333333333357   F   F   F
  0.2500000000000000  0.0098766449999985  0.4583333333333357   F   F   F
  0.2500000000000000  0.2401233550000015  0.3750000000000000   F   F   F
  0.2500000000000000  0.4901233550000015  0.4583333333333357   F   F   F
  0.9957873133370967  0.0129902167610823  0.6265158807710236   T   T   T
  0.2367881937863174  0.7376610844508562  0.6254876743727920   T   T   T
  0.2500000000000000  0.5000000000000000  0.5416666666666643   F   F   F
  0.0000000000000000  0.2500000000000000  0.5416666666666643   F   F   F
  0.2418384368783464  0.9912470259329353  0.5435383669656133   T   T   T
  0.9872166020906903  0.7593554224756360  0.5492231716194453   T   T   T
  0.9862811246492882  0.5098852701017265  0.6186956820392311   T   T   T
  0.2285866577234259  0.2573632614597372  0.6200023281916600   T   T   T
  0.2500000000000000  0.7598766449999985  0.5416666666666643   F   F   F
  0.0000000000000000  0.5098766449999985  0.5416666666666643   F   F   F
  0.9899673751060121  0.7541160989770219  0.6263647620511748   T   T   T
  0.0000000000000000  0.9901233550000015  0.5416666666666643   F   F   F
  0.0039224857248357  0.2798992515389500  0.6288587585624512   T   T   T
  0.2700154278698506  0.9817956400181700  0.6226308420365001   T   T   T
  0.2500000000000000  0.2401233550000015  0.5416666666666643   F   F   F
  0.2570388340150558  0.4958513500377890  0.6296876816851125   T   T   T
  0.5000000000000000  0.0000000000000000  0.4583333333333357   F   F   F
  0.7500000000000000  0.7500000000000000  0.4583333333333357   F   F   F
  0.7500000000000000  0.5000000000000000  0.3750000000000000   F   F   F
  0.5000000000000000  0.2500000000000000  0.3750000000000000   F   F   F
  0.7500000000000000  0.0000000000000000  0.3750000000000000   F   F   F
  0.5000000000000000  0.7500000000000000  0.3750000000000000   F   F   F
  0.5000000000000000  0.5000000000000000  0.4583333333333357   F   F   F
  0.7500000000000000  0.2500000000000000  0.4583333333333357   F   F   F
  0.7500000000000000  0.7598766449999985  0.3750000000000000   F   F   F
  0.5000000000000000  0.5098766449999985  0.3750000000000000   F   F   F
  0.5000000000000000  0.7401233550000015  0.4583333333333357   F   F   F
  0.5000000000000000  0.9901233550000015  0.3750000000000000   F   F   F
  0.5000000000000000  0.2598766449999985  0.4583333333333357   F   F   F
  0.7500000000000000  0.0098766449999985  0.4583333333333357   F   F   F
  0.7500000000000000  0.2401233550000015  0.3750000000000000   F   F   F
  0.7500000000000000  0.4901233550000015  0.4583333333333357   F   F   F
  0.5088763958078530  0.0240269111020197  0.6247279941330177   T   T   T
  0.7411074251163754  0.7591538460577496  0.6253997125668533   T   T   T
  0.7500000000000000  0.5000000000000000  0.5416666666666643   F   F   F
  0.5000000000000000  0.2500000000000000  0.5416666666666643   F   F   F
  0.7411447504209789  0.9946631196754510  0.5481995589559645   T   T   T
  0.4885974904573871  0.7580838612867993  0.5478457453668426   T   T   T
  0.4849386111321294  0.5060236355500649  0.6184859627777755   T   T   T
  0.7381716282469810  0.2610935965256971  0.6186407209088571   T   T   T
  0.7500000000000000  0.7598766449999985  0.5416666666666643   F   F   F
  0.5000000000000000  0.5098766449999985  0.5416666666666643   F   F   F
  0.4884205336873393  0.7492847530243409  0.6249772829635418   T   T   T
  0.5000000000000000  0.9901233550000015  0.5416666666666643   F   F   F
  0.5111337622622472  0.2700659061919808  0.6289323490376475   T   T   T
  0.7489405875858850  0.0124826227238088  0.6256009634042812   T   T   T
  0.7500000000000000  0.2401233550000015  0.5416666666666643   F   F   F
  0.7575002389841785  0.4962752053290487  0.6284098347630760   T   T   T
  0.1700368846025526  0.0858323629326421  0.6365302785148401   T   T   T
 
  0.00000000E+00  0.00000000E+00  0.00000000E+00
  0.00000000E+00  0.00000000E+00  0.00000000E+00
  0.00000000E+00  0.00000000E+00  0.00000000E+00
  0.00000000E+00  0.00000000E+00  0.00000000E+00
  0.00000000E+00  0.00000000E+00  0.00000000E+00
  0.00000000E+00  0.00000000E+00  0.00000000E+00
  0.00000000E+00  0.00000000E+00  0.00000000E+00
  0.00000000E+00  0.00000000E+00  0.00000000E+00
  0.00000000E+00  0.00000000E+00  0.00000000E+00
  0.00000000E+00  0.00000000E+00  0.00000000E+00
  0.00000000E+00  0.00000000E+00  0.00000000E+00
  0.00000000E+00  0.00000000E+00  0.00000000E+00
  0.00000000E+00  0.00000000E+00  0.00000000E+00
  0.00000000E+00  0.00000000E+00  0.00000000E+00
  0.00000000E+00  0.00000000E+00  0.00000000E+00
  0.00000000E+00  0.00000000E+00  0.00000000E+00
  0.00000000E+00  0.00000000E+00  0.00000000E+00
  0.00000000E+00  0.00000000E+00  0.00000000E+00
  0.00000000E+00  0.00000000E+00  0.00000000E+00
  0.00000000E+00  0.00000000E+00  0.00000000E+00
  0.00000000E+00  0.00000000E+00  0.00000000E+00
  0.00000000E+00  0.00000000E+00  0.00000000E+00
  0.00000000E+00  0.00000000E+00  0.00000000E+00
  0.00000000E+00  0.00000000E+00  0.00000000E+00
  0.00000000E+00  0.00000000E+00  0.00000000E+00
  0.00000000E+00  0.00000000E+00  0.00000000E+00
  0.00000000E+00  0.00000000E+00  0.00000000E+00
  0.00000000E+00  0.00000000E+00  0.00000000E+00
  0.00000000E+00  0.00000000E+00  0.00000000E+00
  0.00000000E+00  0.00000000E+00  0.00000000E+00
  0.00000000E+00  0.00000000E+00  0.00000000E+00
  0.00000000E+00  0.00000000E+00  0.00000000E+00
  0.00000000E+00  0.00000000E+00  0.00000000E+00
  0.00000000E+00  0.00000000E+00  0.00000000E+00
  0.00000000E+00  0.00000000E+00  0.00000000E+00
  0.00000000E+00  0.00000000E+00  0.00000000E+00
  0.00000000E+00  0.00000000E+00  0.00000000E+00
  0.00000000E+00  0.00000000E+00  0.00000000E+00
  0.00000000E+00  0.00000000E+00  0.00000000E+00
  0.00000000E+00  0.00000000E+00  0.00000000E+00
  0.00000000E+00  0.00000000E+00  0.00000000E+00
  0.00000000E+00  0.00000000E+00  0.00000000E+00
  0.00000000E+00  0.00000000E+00  0.00000000E+00
  0.00000000E+00  0.00000000E+00  0.00000000E+00
  0.00000000E+00  0.00000000E+00  0.00000000E+00
  0.00000000E+00  0.00000000E+00  0.00000000E+00
  0.00000000E+00  0.00000000E+00  0.00000000E+00
  0.00000000E+00  0.00000000E+00  0.00000000E+00
  0.00000000E+00  0.00000000E+00  0.00000000E+00
  0.00000000E+00  0.00000000E+00  0.00000000E+00
  0.00000000E+00  0.00000000E+00  0.00000000E+00
  0.00000000E+00  0.00000000E+00  0.00000000E+00
  0.00000000E+00  0.00000000E+00  0.00000000E+00
  0.00000000E+00  0.00000000E+00  0.00000000E+00
  0.00000000E+00  0.00000000E+00  0.00000000E+00
  0.00000000E+00  0.00000000E+00  0.00000000E+00
  0.00000000E+00  0.00000000E+00  0.00000000E+00
  0.00000000E+00  0.00000000E+00  0.00000000E+00
  0.00000000E+00  0.00000000E+00  0.00000000E+00
  0.00000000E+00  0.00000000E+00  0.00000000E+00
  0.00000000E+00  0.00000000E+00  0.00000000E+00
  0.00000000E+00  0.00000000E+00  0.00000000E+00
  0.00000000E+00  0.00000000E+00  0.00000000E+00
  0.00000000E+00  0.00000000E+00  0.00000000E+00
  0.00000000E+00  0.00000000E+00  0.00000000E+00
