Ag Ge Te O                              
   1.00000000000000     
     8.7224957048861480    0.0000000000000000   -0.0302678637905818
     4.3945857507065460    7.3955528227607177   -0.2524229590900889
     0.0000000000000000    0.0000000000000000   59.9788780255212401
   Ag   Ge   Te   O 
    24     3    18     1
Selective dynamics
Direct
  0.7687257400000007  0.7860737900000032  0.4239225612892952   F   F   F
  0.1020590733333364  0.1194071233333318  0.5350336724004094   F   F   F
  0.4571484606693019  0.4720647870768033  0.6400645874517323   T   T   T
  0.4221904500000022  0.8218106300000017  0.4308452246226295   F   F   F
  0.7555237833333308  0.1551439633333302  0.5419563357337438   F   F   F
  0.1130000609021593  0.4493829101299553  0.6413665789559886   T   T   T
  0.8718629066666637  0.2484419766666690  0.4568436501781861   F   F   F
  0.2051962399999994  0.5817753099999976  0.5679547612892932   F   F   F
  0.5385295733333351  0.9151086433333333  0.3457325390670718   F   F   F
  0.0249925166666642  0.3027503366666693  0.3561927335115200   F   F   F
  0.3583258499999999  0.6360836699999979  0.4673038446226272   F   F   F
  0.6916591833333356  0.9694170033333336  0.5784149557337415   F   F   F
  0.6805167566666697  0.3221961366666690  0.3508475435115201   F   F   F
  0.0138500899999983  0.6555294699999976  0.4619586546226273   F   F   F
  0.3471834233333340  0.9888628033333333  0.5730697657337416   F   F   F
  0.8136107999999993  0.3600596400000029  0.5049679479559614   F   F   F
  0.1469441333333350  0.6933929733333315  0.6160790590670757   F   F   F
  0.4802774666666636  0.0267263066666672  0.3938568368448543   F   F   F
  0.8020257000000015  0.8277642799999967  0.5025504012892981   F   F   F
  0.1353590333333301  0.1610976133333324  0.6136615124004052   F   F   F
  0.4686923666666658  0.4944309466666681  0.3914392901781838   F   F   F
  0.0599950200000023  0.5004851500000029  0.3930057746226296   F   F   F
  0.3933283533333309  0.8338184833333315  0.5041168857337439   F   F   F
  0.7266616866666666  0.1671518166666672  0.6152279968448511   F   F   F
  0.9802646333333342  0.0343282033333310  0.4001691557337423   F   F   F
  0.3135979666666699  0.3676615366666667  0.5112802668448495   F   F   F
  0.6954730772466391  0.6933527796737238  0.6236270671855024   T   T   T
  0.3572332366666657  0.3042969866666638  0.3528880935115168   F   F   F
  0.6905665700000014  0.6376303199999995  0.4639992046226311   F   F   F
  0.0238999033333300  0.9709636533333352  0.5751103157337383   F   F   F
  0.0201882333333359  0.9763288733333297  0.4897315057337437   F   F   F
  0.3535215666666645  0.3096622066666654  0.6008426168448509   F   F   F
  0.6868549000000002  0.6429955400000011  0.3786203946226294   F   F   F
  0.1571896399999986  0.7120580200000006  0.4195878046226298   F   F   F
  0.4905229733333343  0.0453913533333363  0.5306989157337441   F   F   F
  0.8247499604315252  0.3732277307289777  0.6436728770827571   T   T   T
  0.1485697266666648  0.1870882266666669  0.4201030635115188   F   F   F
  0.4819030600000005  0.5204215600000026  0.5312141746226331   F   F   F
  0.8535558075448080  0.8459873244993474  0.6449619949420935   T   T   T
  0.6631820666666641  0.1833866966666662  0.4204045868448532   F   F   F
  0.9965153999999998  0.5167200300000019  0.5315156979559603   F   F   F
  0.2796739281914071  0.8486437643289833  0.6472400297810950   T   T   T
  0.0071192366666679  0.9845977266666637  0.3566688935115181   F   F   F
  0.3404525699999965  0.3179310599999994  0.4677800046226324   F   F   F
  0.6737859033333322  0.6512643933333351  0.5788911157337395   F   F   F
  0.5018246782363249  0.8599195517054952  0.6408471264705184   T   T   T
 
  0.00000000E+00  0.00000000E+00  0.00000000E+00
  0.00000000E+00  0.00000000E+00  0.00000000E+00
  0.00000000E+00  0.00000000E+00  0.00000000E+00
  0.00000000E+00  0.00000000E+00  0.00000000E+00
  0.00000000E+00  0.00000000E+00  0.00000000E+00
  0.00000000E+00  0.00000000E+00  0.00000000E+00
  0.00000000E+00  0.00000000E+00  0.00000000E+00
  0.00000000E+00  0.00000000E+00  0.00000000E+00
  0.00000000E+00  0.00000000E+00  0.00000000E+00
  0.00000000E+00  0.00000000E+00  0.00000000E+00
  0.00000000E+00  0.00000000E+00  0.00000000E+00
  0.00000000E+00  0.00000000E+00  0.00000000E+00
  0.00000000E+00  0.00000000E+00  0.00000000E+00
  0.00000000E+00  0.00000000E+00  0.00000000E+00
  0.00000000E+00  0.00000000E+00  0.00000000E+00
  0.00000000E+00  0.00000000E+00  0.00000000E+00
  0.00000000E+00  0.00000000E+00  0.00000000E+00
  0.00000000E+00  0.00000000E+00  0.00000000E+00
  0.00000000E+00  0.00000000E+00  0.00000000E+00
  0.00000000E+00  0.00000000E+00  0.00000000E+00
  0.00000000E+00  0.00000000E+00  0.00000000E+00
  0.00000000E+00  0.00000000E+00  0.00000000E+00
  0.00000000E+00  0.00000000E+00  0.00000000E+00
  0.00000000E+00  0.00000000E+00  0.00000000E+00
  0.00000000E+00  0.00000000E+00  0.00000000E+00
  0.00000000E+00  0.00000000E+00  0.00000000E+00
  0.00000000E+00  0.00000000E+00  0.00000000E+00
  0.00000000E+00  0.00000000E+00  0.00000000E+00
  0.00000000E+00  0.00000000E+00  0.00000000E+00
  0.00000000E+00  0.00000000E+00  0.00000000E+00
  0.00000000E+00  0.00000000E+00  0.00000000E+00
  0.00000000E+00  0.00000000E+00  0.00000000E+00
  0.00000000E+00  0.00000000E+00  0.00000000E+00
  0.00000000E+00  0.00000000E+00  0.00000000E+00
  0.00000000E+00  0.00000000E+00  0.00000000E+00
  0.00000000E+00  0.00000000E+00  0.00000000E+00
  0.00000000E+00  0.00000000E+00  0.00000000E+00
  0.00000000E+00  0.00000000E+00  0.00000000E+00
  0.00000000E+00  0.00000000E+00  0.00000000E+00
  0.00000000E+00  0.00000000E+00  0.00000000E+00
  0.00000000E+00  0.00000000E+00  0.00000000E+00
  0.00000000E+00  0.00000000E+00  0.00000000E+00
  0.00000000E+00  0.00000000E+00  0.00000000E+00
  0.00000000E+00  0.00000000E+00  0.00000000E+00
  0.00000000E+00  0.00000000E+00  0.00000000E+00
  0.00000000E+00  0.00000000E+00  0.00000000E+00
