Cs Au Se H O                            
   1.00000000000000     
     8.9376629211887302    0.0000000000000000    0.0000000000000005
    -0.0000000000000009   14.6379485599999999    0.0000000000000009
     0.0000000000000000    0.0000000000000000   29.9307416084272049
   Cs   Au   Se   H    O 
     8     8     8     1     1
Selective dynamics
Direct
  0.1308843400000015  0.1250000000000000  0.4375000000000000   F   F   F
  0.8691156599999985  0.3750000000000000  0.4375000000000000   F   F   F
  0.6361895693290620  0.1250490842248411  0.5586778732389845   T   T   T
  0.4514938851150276  0.4674455478670936  0.5666558703162536   T   T   T
  0.0350457989131243  0.2371997839493218  0.5627681851181450   T   T   T
  0.0222141285035420  0.0011464604669413  0.5637678151041925   T   T   T
  0.5000000000000000  0.2500000000000000  0.4375000000000000   F   F   F
  0.5000000000000000  0.0000000000000000  0.4375000000000000   F   F   F
  0.6909952000000033  0.1250000000000000  0.4375000000000000   F   F   F
  0.3090047999999967  0.3750000000000000  0.4375000000000000   F   F   F
  0.2200315136096549  0.1152443639635550  0.5652327708449363   T   T   T
  0.8317035557451291  0.3488537592861292  0.5640860071041445   T   T   T
  0.1308843400000015  0.6250000000000000  0.4375000000000000   F   F   F
  0.8691156599999985  0.8750000000000000  0.4375000000000000   F   F   F
  0.8290597852180497  0.6225897827769415  0.6543254118777213   T   T   T
  0.4436005439244255  0.7860267037707089  0.5690045325386919   T   T   T
  0.9665321483586808  0.7572733750718541  0.5587125466813916   T   T   T
  0.9793762688696503  0.4880092094394328  0.5593695192975190   T   T   T
  0.5000000000000000  0.7500000000000000  0.4375000000000000   F   F   F
  0.5000000000000000  0.5000000000000000  0.4375000000000000   F   F   F
  0.6909952000000033  0.6250000000000000  0.4375000000000000   F   F   F
  0.3090047999999967  0.8750000000000000  0.4375000000000000   F   F   F
  0.1339597586170242  0.6252583092531836  0.5591942510278614   T   T   T
  0.8124658863657217  0.8939645498018365  0.5641053554052391   T   T   T
  0.4544356433234711  0.6266606004066375  0.6487468464594670   T   T   T
  0.5336263094539078  0.6244638239637297  0.6263751513527964   T   T   T
 
  0.00000000E+00  0.00000000E+00  0.00000000E+00
  0.00000000E+00  0.00000000E+00  0.00000000E+00
  0.00000000E+00  0.00000000E+00  0.00000000E+00
  0.00000000E+00  0.00000000E+00  0.00000000E+00
  0.00000000E+00  0.00000000E+00  0.00000000E+00
  0.00000000E+00  0.00000000E+00  0.00000000E+00
  0.00000000E+00  0.00000000E+00  0.00000000E+00
  0.00000000E+00  0.00000000E+00  0.00000000E+00
  0.00000000E+00  0.00000000E+00  0.00000000E+00
  0.00000000E+00  0.00000000E+00  0.00000000E+00
  0.00000000E+00  0.00000000E+00  0.00000000E+00
  0.00000000E+00  0.00000000E+00  0.00000000E+00
  0.00000000E+00  0.00000000E+00  0.00000000E+00
  0.00000000E+00  0.00000000E+00  0.00000000E+00
  0.00000000E+00  0.00000000E+00  0.00000000E+00
  0.00000000E+00  0.00000000E+00  0.00000000E+00
  0.00000000E+00  0.00000000E+00  0.00000000E+00
  0.00000000E+00  0.00000000E+00  0.00000000E+00
  0.00000000E+00  0.00000000E+00  0.00000000E+00
  0.00000000E+00  0.00000000E+00  0.00000000E+00
  0.00000000E+00  0.00000000E+00  0.00000000E+00
  0.00000000E+00  0.00000000E+00  0.00000000E+00
  0.00000000E+00  0.00000000E+00  0.00000000E+00
  0.00000000E+00  0.00000000E+00  0.00000000E+00
  0.00000000E+00  0.00000000E+00  0.00000000E+00
  0.00000000E+00  0.00000000E+00  0.00000000E+00
