Cs Au Se H O
 1.0000000000000000
     8.9376629211887302    0.0000000000000000    0.0000000000000005
    -0.0000000000000009   14.6379485599999999    0.0000000000000009
     0.0000000000000000    0.0000000000000000   29.9307416084272049
Cs Au Se H O
8 8 8 1 1
Selective dynamics
Cartesian
  1.1698001125822581  1.8297435699999991 13.0946994536869017   F   F   F
  7.7678628086064716  5.4892307100000002 13.0946994536869017   F   F   F
  5.6860479246393671  1.8304620623583727 16.7216430662616524   T   T   T
  4.0353001561360013  6.8424438842795174 16.9604304353341497   T   T   T
  0.3132275374892968  3.4721182358932663 16.8440691342146813   T   T   T
  0.1985423926525982  0.0167818293411983 16.8739888010312491   T   T   T
  4.4688314605943651  3.6594871400000000 13.0946994536869017   F   F   F
  4.4688314605943651  0.0000000000000000 13.0946994536869017   F   F   F
  6.1758821777593909  1.8297435699999991 13.0946994536869017   F   F   F
  2.7617807434293384  5.4892307100000002 13.0946994536869017   F   F   F
  1.9665675006820535  1.6869410715283897 16.9178360127751723   T   T   T
  7.4334860316040370  5.1065033833930178 16.8835125235635708   T   T   T
  1.1698001125822577  9.1487178499999988 13.0946994536869017   F   F   F
  7.7678628086064707 12.8082049900000001 13.0946994536869017   F   F   F
  7.4098569017920237  9.1134372142704212 19.5844448307396881   T   T   T
  3.9647521332525155 11.5058184565819701 17.0307276374394299   T   T   T
 -0.2991243766664418 11.0849287101593443 16.7226808681069663   T   T   T
 -0.1843279570202871  7.1434537045806588 16.7423445457242117   T   T   T
  4.4688314605943642 10.9784614200000004 13.0946994536869017   F   F   F
  4.4688314605943642  7.3189742799999999 13.0946994536869017   F   F   F
  6.1758821777593900  9.1487178499999988 13.0946994536869017   F   F   F
  2.7617807434293380 12.8082049900000001 13.0946994536869017   F   F   F
  1.1972871675227945  9.1524989675607209 16.7370986364329504   T   T   T
  7.2615462273016531 13.0858070944628579 16.8840916325642532   T   T   T
  4.0615925993987041  9.1730256333310987 19.4174742306602184   T   T   T
  4.7693720797769901  9.1408693327619286 18.7478728050799610   T   T   T
