S Tl O                                  
   1.00000000000000     
    14.8947738067976587    0.0000000000000000   -0.0000000000000009
     7.4473869033988347   12.8992525003098208   -0.0000000000000007
     0.0000000000000000    0.0000000000000072   58.6178809361686746
   S    Tl   O 
    36    72     1
Selective dynamics
Direct
  0.0092380619899970  0.4875043168223172  0.6151323579070009   T   T   T
  0.0078566808333349  0.4928600866666670  0.3937565312962974   F   F   F
  0.3411900141666635  0.3261934200000027  0.6029102268518542   F   F   F
  0.1743259093191512  0.1582109229323123  0.6114084111434579   T   T   T
  0.0078566808333349  0.4928600866666670  0.5048676424074046   F   F   F
  0.3411900141666635  0.3261934200000027  0.4917991157407400   F   F   F
  0.1745233474999992  0.1595267533333313  0.5031386090740710   F   F   F
  0.3411900141666635  0.3261934200000027  0.3806880046296328   F   F   F
  0.1745233474999992  0.1595267533333313  0.3920274979629639   F   F   F
  0.1576562741666692  0.0071399133333330  0.5822516861111140   F   F   F
  0.0221365075000008  0.3287806666666668  0.3600294638888855   F   F   F
  0.3401778201416192  0.4799536768405090  0.6389169848806446   T   T   T
  0.1576562741666692  0.0071399133333330  0.3600294638888855   F   F   F
  0.0221365075000008  0.3287806666666668  0.5822516861111140   F   F   F
  0.4925340299050376  0.1778331382777054  0.6389567297183518   T   T   T
  0.4921433191666651  0.1771893983333328  0.4177483138888860   F   F   F
  0.3392407308333318  0.4771467249999972  0.4177483138888860   F   F   F
  0.1958461513234582  0.3378530608472516  0.6435399301908618   T   T   T
  0.3437772608333347  0.1426596800000013  0.5822516861111140   F   F   F
  0.3437772608333347  0.1426596800000013  0.3600294638888855   F   F   F
  0.1921859925000007  0.3242441366666640  0.4177483138888860   F   F   F
  0.1576562741666692  0.0071399133333330  0.4711405749999997   F   F   F
  0.3392407308333318  0.4771467249999972  0.5288594250000003   F   F   F
  0.0221365075000008  0.3287806666666668  0.4711405749999997   F   F   F
  0.4921433191666651  0.1771893983333328  0.5288594250000003   F   F   F
  0.1921859925000007  0.3242441366666640  0.5288594250000003   F   F   F
  0.3437772608333347  0.1426596800000013  0.4711405749999997   F   F   F
  0.0096617685473674  0.9898330117990852  0.6149876240567451   T   T   T
  0.0078566808333349  0.9928600866666670  0.3937565312962974   F   F   F
  0.3411900141666635  0.8261934200000027  0.6029102268518542   F   F   F
  0.1741589174233695  0.6590222517816287  0.6135709906135816   T   T   T
  0.0078566808333349  0.9928600866666670  0.5048676424074046   F   F   F
  0.3411900141666635  0.8261934200000027  0.4917991157407400   F   F   F
  0.1745233474999992  0.6595267533333313  0.5031386090740710   F   F   F
  0.3411900141666635  0.8261934200000027  0.3806880046296328   F   F   F
  0.1745233474999992  0.6595267533333313  0.3920274979629639   F   F   F
  0.1576562741666692  0.5071399133333330  0.5822516861111140   F   F   F
  0.0221365075000008  0.8287806666666668  0.3600294638888855   F   F   F
  0.3574220450525516  0.9674493430998439  0.6440142436338903   T   T   T
  0.1576562741666692  0.5071399133333330  0.3600294638888855   F   F   F
  0.0221365075000008  0.8287806666666668  0.5822516861111140   F   F   F
  0.4944350560459014  0.6750538331096081  0.6387288603680972   T   T   T
  0.4921433191666651  0.6771893983333328  0.4177483138888860   F   F   F
  0.3392407308333318  0.9771467249999972  0.4177483138888860   F   F   F
  0.1936990524846394  0.8231316088215053  0.6389337932977597   T   T   T
  0.3437772608333347  0.6426596800000013  0.5822516861111140   F   F   F
  0.3437772608333347  0.6426596800000013  0.3600294638888855   F   F   F
  0.1921859925000007  0.8242441366666640  0.4177483138888860   F   F   F
  0.1576562741666692  0.5071399133333330  0.4711405749999997   F   F   F
  0.3392407308333318  0.9771467249999972  0.5288594250000003   F   F   F
  0.0221365075000008  0.8287806666666668  0.4711405749999997   F   F   F
  0.4921433191666651  0.6771893983333328  0.5288594250000003   F   F   F
  0.1921859925000007  0.8242441366666640  0.5288594250000003   F   F   F
  0.3437772608333347  0.6426596800000013  0.4711405749999997   F   F   F
  0.5086033947180084  0.4925978675180431  0.6151633523220426   T   T   T
  0.5078566808333349  0.4928600866666670  0.3937565312962974   F   F   F
  0.8411900141666706  0.3261934200000027  0.6029102268518542   F   F   F
  0.6754354268010445  0.1581006587467613  0.6134020667847437   T   T   T
  0.5078566808333349  0.4928600866666670  0.5048676424074046   F   F   F
  0.8411900141666635  0.3261934200000027  0.4917991157407400   F   F   F
  0.6745233474999992  0.1595267533333313  0.5031386090740710   F   F   F
  0.8411900141666635  0.3261934200000027  0.3806880046296328   F   F   F
  0.6745233474999992  0.1595267533333313  0.3920274979629639   F   F   F
  0.6576562741666692  0.0071399133333330  0.5822516861111140   F   F   F
  0.5221365075000008  0.3287806666666668  0.3600294638888855   F   F   F
  0.8379525381175128  0.4780331841995533  0.6391002574225837   T   T   T
  0.6576562741666692  0.0071399133333330  0.3600294638888855   F   F   F
  0.5221365075000008  0.3287806666666668  0.5822516861111140   F   F   F
  0.9950066215983284  0.1752023505943612  0.6380255472475795   T   T   T
  0.9921433191666651  0.1771893983333328  0.4177483138888860   F   F   F
  0.8392407308333318  0.4771467249999972  0.4177483138888860   F   F   F
  0.6913451625437546  0.3229257771294769  0.6389522088998660   T   T   T
  0.8437772608333347  0.1426596800000013  0.5822516861111140   F   F   F
  0.8437772608333347  0.1426596800000013  0.3600294638888855   F   F   F
  0.6921859925000007  0.3242441366666640  0.4177483138888860   F   F   F
  0.6576562741666692  0.0071399133333330  0.4711405749999997   F   F   F
  0.8392407308333318  0.4771467249999972  0.5288594250000003   F   F   F
  0.5221365075000008  0.3287806666666668  0.4711405749999997   F   F   F
  0.9921433191666651  0.1771893983333328  0.5288594250000003   F   F   F
  0.6921859925000007  0.3242441366666640  0.5288594250000003   F   F   F
  0.8437772608333347  0.1426596800000013  0.4711405749999997   F   F   F
  0.5047624761926173  0.9944934872176887  0.6155024332007173   T   T   T
  0.5078566808333349  0.9928600866666670  0.3937565312962974   F   F   F
  0.8411900141666635  0.8261934200000027  0.6029102268518542   F   F   F
  0.6742527096101583  0.6604138648746698  0.6134574904689671   T   T   T
  0.5078566808333349  0.9928600866666670  0.5048676424074046   F   F   F
  0.8411900141666635  0.8261934200000027  0.4917991157407400   F   F   F
  0.6745233474999992  0.6595267533333313  0.5031386090740710   F   F   F
  0.8411900141666635  0.8261934200000027  0.3806880046296328   F   F   F
  0.6745233474999992  0.6595267533333313  0.3920274979629639   F   F   F
  0.6576562741666692  0.5071399133333330  0.5822516861111140   F   F   F
  0.5221365075000008  0.8287806666666668  0.3600294638888855   F   F   F
  0.8398768374810430  0.9775509340076525  0.6389998949284035   T   T   T
  0.6576562741666692  0.5071399133333330  0.3600294638888855   F   F   F
  0.5221365075000008  0.8287806666666668  0.5822516861111140   F   F   F
  0.9933259239920886  0.6738063768885070  0.6386008168173305   T   T   T
  0.9921433191666651  0.6771893983333328  0.4177483138888860   F   F   F
  0.8392407308333318  0.9771467249999972  0.4177483138888860   F   F   F
  0.6914504929065401  0.8247192828979166  0.6388237364730003   T   T   T
  0.8437772608333347  0.6426596800000013  0.5822516861111140   F   F   F
  0.8437772608333347  0.6426596800000013  0.3600294638888855   F   F   F
  0.6921859925000007  0.8242441366666640  0.4177483138888860   F   F   F
  0.6576562741666692  0.5071399133333330  0.4711405749999997   F   F   F
  0.8392407308333318  0.9771467249999972  0.5288594250000003   F   F   F
  0.5221365075000008  0.8287806666666668  0.4711405749999997   F   F   F
  0.9921433191666651  0.6771893983333328  0.5288594250000003   F   F   F
  0.6921859925000007  0.8242441366666640  0.5288594250000003   F   F   F
  0.8437772608333347  0.6426596800000013  0.4711405749999997   F   F   F
  0.2131043308264040  0.1575863204234054  0.6380289512757287   T   T   T
 
  0.00000000E+00  0.00000000E+00  0.00000000E+00
  0.00000000E+00  0.00000000E+00  0.00000000E+00
  0.00000000E+00  0.00000000E+00  0.00000000E+00
  0.00000000E+00  0.00000000E+00  0.00000000E+00
  0.00000000E+00  0.00000000E+00  0.00000000E+00
  0.00000000E+00  0.00000000E+00  0.00000000E+00
  0.00000000E+00  0.00000000E+00  0.00000000E+00
  0.00000000E+00  0.00000000E+00  0.00000000E+00
  0.00000000E+00  0.00000000E+00  0.00000000E+00
  0.00000000E+00  0.00000000E+00  0.00000000E+00
  0.00000000E+00  0.00000000E+00  0.00000000E+00
  0.00000000E+00  0.00000000E+00  0.00000000E+00
  0.00000000E+00  0.00000000E+00  0.00000000E+00
  0.00000000E+00  0.00000000E+00  0.00000000E+00
  0.00000000E+00  0.00000000E+00  0.00000000E+00
  0.00000000E+00  0.00000000E+00  0.00000000E+00
  0.00000000E+00  0.00000000E+00  0.00000000E+00
  0.00000000E+00  0.00000000E+00  0.00000000E+00
  0.00000000E+00  0.00000000E+00  0.00000000E+00
  0.00000000E+00  0.00000000E+00  0.00000000E+00
  0.00000000E+00  0.00000000E+00  0.00000000E+00
  0.00000000E+00  0.00000000E+00  0.00000000E+00
  0.00000000E+00  0.00000000E+00  0.00000000E+00
  0.00000000E+00  0.00000000E+00  0.00000000E+00
  0.00000000E+00  0.00000000E+00  0.00000000E+00
  0.00000000E+00  0.00000000E+00  0.00000000E+00
  0.00000000E+00  0.00000000E+00  0.00000000E+00
  0.00000000E+00  0.00000000E+00  0.00000000E+00
  0.00000000E+00  0.00000000E+00  0.00000000E+00
  0.00000000E+00  0.00000000E+00  0.00000000E+00
  0.00000000E+00  0.00000000E+00  0.00000000E+00
  0.00000000E+00  0.00000000E+00  0.00000000E+00
  0.00000000E+00  0.00000000E+00  0.00000000E+00
  0.00000000E+00  0.00000000E+00  0.00000000E+00
  0.00000000E+00  0.00000000E+00  0.00000000E+00
  0.00000000E+00  0.00000000E+00  0.00000000E+00
  0.00000000E+00  0.00000000E+00  0.00000000E+00
  0.00000000E+00  0.00000000E+00  0.00000000E+00
  0.00000000E+00  0.00000000E+00  0.00000000E+00
  0.00000000E+00  0.00000000E+00  0.00000000E+00
  0.00000000E+00  0.00000000E+00  0.00000000E+00
  0.00000000E+00  0.00000000E+00  0.00000000E+00
  0.00000000E+00  0.00000000E+00  0.00000000E+00
  0.00000000E+00  0.00000000E+00  0.00000000E+00
  0.00000000E+00  0.00000000E+00  0.00000000E+00
  0.00000000E+00  0.00000000E+00  0.00000000E+00
  0.00000000E+00  0.00000000E+00  0.00000000E+00
  0.00000000E+00  0.00000000E+00  0.00000000E+00
  0.00000000E+00  0.00000000E+00  0.00000000E+00
  0.00000000E+00  0.00000000E+00  0.00000000E+00
  0.00000000E+00  0.00000000E+00  0.00000000E+00
  0.00000000E+00  0.00000000E+00  0.00000000E+00
  0.00000000E+00  0.00000000E+00  0.00000000E+00
  0.00000000E+00  0.00000000E+00  0.00000000E+00
  0.00000000E+00  0.00000000E+00  0.00000000E+00
  0.00000000E+00  0.00000000E+00  0.00000000E+00
  0.00000000E+00  0.00000000E+00  0.00000000E+00
  0.00000000E+00  0.00000000E+00  0.00000000E+00
  0.00000000E+00  0.00000000E+00  0.00000000E+00
  0.00000000E+00  0.00000000E+00  0.00000000E+00
  0.00000000E+00  0.00000000E+00  0.00000000E+00
  0.00000000E+00  0.00000000E+00  0.00000000E+00
  0.00000000E+00  0.00000000E+00  0.00000000E+00
  0.00000000E+00  0.00000000E+00  0.00000000E+00
  0.00000000E+00  0.00000000E+00  0.00000000E+00
  0.00000000E+00  0.00000000E+00  0.00000000E+00
  0.00000000E+00  0.00000000E+00  0.00000000E+00
  0.00000000E+00  0.00000000E+00  0.00000000E+00
  0.00000000E+00  0.00000000E+00  0.00000000E+00
  0.00000000E+00  0.00000000E+00  0.00000000E+00
  0.00000000E+00  0.00000000E+00  0.00000000E+00
  0.00000000E+00  0.00000000E+00  0.00000000E+00
  0.00000000E+00  0.00000000E+00  0.00000000E+00
  0.00000000E+00  0.00000000E+00  0.00000000E+00
  0.00000000E+00  0.00000000E+00  0.00000000E+00
  0.00000000E+00  0.00000000E+00  0.00000000E+00
  0.00000000E+00  0.00000000E+00  0.00000000E+00
  0.00000000E+00  0.00000000E+00  0.00000000E+00
  0.00000000E+00  0.00000000E+00  0.00000000E+00
  0.00000000E+00  0.00000000E+00  0.00000000E+00
  0.00000000E+00  0.00000000E+00  0.00000000E+00
  0.00000000E+00  0.00000000E+00  0.00000000E+00
  0.00000000E+00  0.00000000E+00  0.00000000E+00
  0.00000000E+00  0.00000000E+00  0.00000000E+00
  0.00000000E+00  0.00000000E+00  0.00000000E+00
  0.00000000E+00  0.00000000E+00  0.00000000E+00
  0.00000000E+00  0.00000000E+00  0.00000000E+00
  0.00000000E+00  0.00000000E+00  0.00000000E+00
  0.00000000E+00  0.00000000E+00  0.00000000E+00
  0.00000000E+00  0.00000000E+00  0.00000000E+00
  0.00000000E+00  0.00000000E+00  0.00000000E+00
  0.00000000E+00  0.00000000E+00  0.00000000E+00
  0.00000000E+00  0.00000000E+00  0.00000000E+00
  0.00000000E+00  0.00000000E+00  0.00000000E+00
  0.00000000E+00  0.00000000E+00  0.00000000E+00
  0.00000000E+00  0.00000000E+00  0.00000000E+00
  0.00000000E+00  0.00000000E+00  0.00000000E+00
  0.00000000E+00  0.00000000E+00  0.00000000E+00
  0.00000000E+00  0.00000000E+00  0.00000000E+00
  0.00000000E+00  0.00000000E+00  0.00000000E+00
  0.00000000E+00  0.00000000E+00  0.00000000E+00
  0.00000000E+00  0.00000000E+00  0.00000000E+00
  0.00000000E+00  0.00000000E+00  0.00000000E+00
  0.00000000E+00  0.00000000E+00  0.00000000E+00
  0.00000000E+00  0.00000000E+00  0.00000000E+00
  0.00000000E+00  0.00000000E+00  0.00000000E+00
  0.00000000E+00  0.00000000E+00  0.00000000E+00
  0.00000000E+00  0.00000000E+00  0.00000000E+00
  0.00000000E+00  0.00000000E+00  0.00000000E+00
