S Tl O
 1.0000000000000000
    14.8947738067976587   -0.0000000000000000   -0.0000000000000009
     7.4473869033988347   12.8992525003098208   -0.0000000000000007
    -0.0000000000000000    0.0000000000000072   58.6178809361686746
S Tl O
36 72 1
Selective dynamics
Cartesian
  3.7682321082070795  6.2884412776820993 36.0577553157771362   T   T   T
  3.7875432385340488  6.3575267052379170 23.0811734693650727   F   F   F
  7.5112366902334688  4.2076512885196156 35.3413198928002998   F   F   F
  3.7748029433938042  2.0408026432109523 35.8394654477793466   T   T   T
  3.7875432385340488  6.3575267052379179 29.5942713511615985   F   F   F
  7.5112366902334671  4.2076512885196120 28.8282220110037848   F   F   F
  3.7875432385340515  2.0577758718013106 29.4929190810935928   F   F   F
  7.5112366902334671  4.2076512885196147 22.3151241292072520   F   F   F
  3.7875432385340506  2.0577758718013106 22.9798211992970671   F   F   F
  2.4014282399850488  0.0920995449169996 34.1303600113445640   F   F   F
  2.7782751031090518  4.2410248365535299 21.1041642477515303   F   F   F
  8.6412724122390543  6.1910436660178396 37.4519597478295054   T   T   T
  2.4014282399850484  0.0920995449169983 21.1041642477515303   F   F   F
  2.7782751031090513  4.2410248365535317 34.1303600113445640   F   F   F
  8.6605751525858192  2.2939145535666783 37.4542895059942111   T   T   T
  8.6499614240829157  2.2856107894796454 24.4875209248241283   F   F   F
  8.6064102225798749  6.1548360854708948 24.4875209248241283   F   F   F
  5.4332065855218596  4.3580519398712863 37.7229470055983711   T   T   T
  6.1829263725080477  1.8402032339334016 34.1303600113445640   F   F   F
  6.1829263725080468  1.8402032339334025 21.1041642477515303   F   F   F
  5.2773384240376107  4.1825069906082994 24.4875209248241283   F   F   F
  2.4014282399850493  0.0920995449169983 27.6172621295480560   F   F   F
  8.6064102225798749  6.1548360854708974 31.0006188066206292   F   F   F
  2.7782751031090518  4.2410248365535308 27.6172621295480560   F   F   F
  8.6499614240829157  2.2856107894796449 31.0006188066206292   F   F   F
  5.2773384240376080  4.1825069906083012 31.0006188066206292   F   F   F
  6.1829263725080468  1.8402032339334031 27.6172621295480560   F   F   F
  7.5155792657109597 12.7681059523385372 36.0492713241754572   T   T   T
  7.5112366902334662 12.8071529553928265 23.0811734693650727   F   F   F
 11.2349301419328853 10.6572775386745260 35.3413198928002998   F   F   F
  7.5020513684247963  8.5008944290539894 35.9662312736741825   T   T   T
  7.5112366902334662 12.8071529553928283 29.5942713511615985   F   F   F
 11.2349301419328853 10.6572775386745224 28.8282220110037848   F   F   F
  7.5112366902334688  8.5074021219562219 29.4929190810935928   F   F   F
 11.2349301419328853 10.6572775386745242 22.3151241292072520   F   F   F
  7.5112366902334680  8.5074021219562219 22.9798211992970671   F   F   F
  6.1251216916844662  6.5417257950719101 34.1303600113445640   F   F   F
  6.5019685548084691 10.6906510867084403 21.1041642477515303   F   F   F
 12.5286900821244345 12.4793733579037642 37.7507502545279294   T   T   T
  6.1251216916844662  6.5417257950719083 21.1041642477515303   F   F   F
  6.5019685548084691 10.6906510867084421 34.1303600113445640   F   F   F
 12.3918853977446553  8.7076898445828181 37.4409322875519592   T   T   T
 12.3736548757823321  8.7352370396345549 24.4875209248241283   F   F   F
 12.3301036742792931 12.6044623356258043 24.4875209248241283   F   F   F
  9.0152831366606563 10.6177824631748781 37.4529450216225541   T   T   T
  9.9066198242074641  8.2898294840883118 34.1303600113445640   F   F   F
  9.9066198242074641  8.2898294840883135 21.1041642477515303   F   F   F
  9.0010318757370271 10.6321332407632099 24.4875209248241283   F   F   F
  6.1251216916844662  6.5417257950719083 27.6172621295480560   F   F   F
 12.3301036742792931 12.6044623356258079 31.0006188066206292   F   F   F
  6.5019685548084691 10.6906510867084421 27.6172621295480560   F   F   F
 12.3736548757823321  8.7352370396345549 31.0006188066206292   F   F   F
  9.0010318757370253 10.6321332407632116 31.0006188066206292   F   F   F
  9.9066198242074641  8.2898294840883135 27.6172621295480560   F   F   F
 11.2440994288902090  6.3541442742294150 36.0595721427078715   T   T   T
 11.2349301419328782  6.3575267052379170 23.0811734693650727   F   F   F
 14.9586235936322982  4.2076512885196156 35.3413198928002998   F   F   F
 11.2378946786686988  2.0393803176397682 35.9563293167880857   T   T   T
 11.2349301419328782  6.3575267052379179 29.5942713511615985   F   F   F
 14.9586235936322964  4.2076512885196120 28.8282220110037848   F   F   F
 11.2349301419328818  2.0577758718013106 29.4929190810935928   F   F   F
 14.9586235936322964  4.2076512885196147 22.3151241292072520   F   F   F
 11.2349301419328800  2.0577758718013106 22.9798211992970671   F   F   F
  9.8488151433838773  0.0920995449169996 34.1303600113445640   F   F   F
 10.2256620065078820  4.2410248365535299 21.1041642477515303   F   F   F
 16.0412115914900966  6.1662707465171200 37.4627027958715644   T   T   T
  9.8488151433838773  0.0920995449169983 21.1041642477515303   F   F   F
 10.2256620065078803  4.2410248365535317 34.1303600113445640   F   F   F
 16.1251982562341496  2.2599793589644421 37.3997055627926329   T   T   T
 16.0973483274817468  2.2856107894796454 24.4875209248241283   F   F   F
 16.0537971259787042  6.1548360854708948 24.4875209248241283   F   F   F
 12.7023830218769334  4.1655011380519067 37.4540245051941838   T   T   T
 13.6303132759068770  1.8402032339334016 34.1303600113445640   F   F   F
 13.6303132759068752  1.8402032339334025 21.1041642477515303   F   F   F
 12.7247253274364400  4.1825069906082994 24.4875209248241283   F   F   F
  9.8488151433838791  0.0920995449169983 27.6172621295480560   F   F   F
 16.0537971259787042  6.1548360854708974 31.0006188066206292   F   F   F
 10.2256620065078820  4.2410248365535308 27.6172621295480560   F   F   F
 16.0973483274817468  2.2856107894796449 31.0006188066206292   F   F   F
 12.7247253274364382  4.1825069906083012 31.0006188066206292   F   F   F
 13.6303132759068752  1.8402032339334031 27.6172621295480560   F   F   F
 14.9247006812685186 12.8282226015345984 36.0794483452817403   T   T   T
 14.9586235936322964 12.8071529553928265 23.0811734693650727   F   F   F
 18.6823170453317147 10.6572775386745260 35.3413198928002998   F   F   F
 14.9611991663542803  8.5188451977238238 35.9595781357107427   T   T   T
 14.9586235936322964 12.8071529553928283 29.5942713511615985   F   F   F
 18.6823170453317147 10.6572775386745224 28.8282220110037848   F   F   F
 14.9586235936323000  8.5074021219562219 29.4929190810935928   F   F   F
 18.6823170453317147 10.6572775386745242 22.3151241292072520   F   F   F
 14.9586235936322982  8.5074021219562219 22.9798211992970671   F   F   F
 13.5725085950832955  6.5417257950719101 34.1303600113445640   F   F   F
 13.9493554582073003 10.6906510867084403 21.1041642477515303   F   F   F
 19.7899755431825497 12.6096763296784182 37.4568197591372609   T   T   T
 13.5725085950832955  6.5417257950719083 21.1041642477515303   F   F   F
 13.9493554582072985 10.6906510867084421 34.1303600113445640   F   F   F
 19.8134617409565905  8.6915985918038121 37.4334266459384253   T   T   T
 19.8210417791811651  8.7352370396345549 24.4875209248241283   F   F   F
 19.7774905776781225 12.6044623356258043 24.4875209248241283   F   F   F
 16.4410022768761266 10.6382622719746696 37.4464937237728464   T   T   T
 17.3540067276062970  8.2898294840883118 34.1303600113445640   F   F   F
 17.3540067276062935  8.2898294840883135 21.1041642477515303   F   F   F
 16.4484187791358565 10.6321332407632099 24.4875209248241283   F   F   F
 13.5725085950832973  6.5417257950719083 27.6172621295480560   F   F   F
 19.7774905776781225 12.6044623356258079 31.0006188066206292   F   F   F
 13.9493554582073003 10.6906510867084421 27.6172621295480560   F   F   F
 19.8210417791811651  8.7352370396345549 31.0006188066206292   F   F   F
 16.4484187791358565 10.6321332407632116 31.0006188066206292   F   F   F
 17.3540067276062935  8.2898294840883135 27.6172621295480560   F   F   F
  4.3477471037843660  2.0327457377362865 37.3999050997092581   T   T   T
