Rb Sb Se H O                            
   1.00000000000000     
     8.3414327799999999    0.0000000000000000    0.0000000000000005
    -0.0000000000000008   12.4635844099999993    0.0000000000000008
     0.0000000000000000    0.0000000000000000   45.5808079399999997
   Rb   Sb   Se   H    O 
     8    24    40     1     1
Selective dynamics
Direct
  0.3750000000000000  0.3493829800000015  0.5448294500000017   F   F   F
  0.3750000000000000  0.1506170199999985  0.2948294500000017   F   F   F
  0.1250000000000000  0.6506170199999985  0.4551705499999983   F   F   F
  0.1255467104415331  0.8468780278525401  0.6989998276449683   T   T   T
  0.3750000000000000  0.0503058099999976  0.5972022650000000   F   F   F
  0.3750000000000000  0.4496941900000024  0.3472022650000000   F   F   F
  0.1250000000000000  0.9496941900000024  0.4027977350000000   F   F   F
  0.1250000000000000  0.5503058099999976  0.6527977350000000   F   F   F
  0.1250000000000000  0.1939972400000016  0.6660201099999981   F   F   F
  0.1250000000000000  0.3060027599999984  0.4160201099999981   F   F   F
  0.3750000000000000  0.8060027599999984  0.3339798900000019   F   F   F
  0.3750000000000000  0.6939972400000016  0.5839798900000019   F   F   F
  0.1250000000000000  0.8914889200000005  0.5303910250000001   F   F   F
  0.1250000000000000  0.6085110799999995  0.2803910250000001   F   F   F
  0.3750000000000000  0.1085110799999995  0.4696089749999999   F   F   F
  0.3763329221009712  0.4004864496247222  0.7218850726306911   T   T   T
  0.1250000000000000  0.2023966300000026  0.5992582249999998   F   F   F
  0.1250000000000000  0.2976033699999974  0.3492582249999998   F   F   F
  0.3750000000000000  0.7976033699999974  0.4007417750000002   F   F   F
  0.3750000000000000  0.7023966300000026  0.6507417750000002   F   F   F
  0.1250000000000000  0.8679766999999998  0.5912555049999995   F   F   F
  0.1250000000000000  0.6320233000000002  0.3412555049999995   F   F   F
  0.3750000000000000  0.1320233000000002  0.4087444950000005   F   F   F
  0.3750000000000000  0.3679766999999998  0.6587444950000005   F   F   F
  0.3750000000000000  0.0385758500000009  0.6638231100000027   F   F   F
  0.3750000000000000  0.4614241499999991  0.4138231100000027   F   F   F
  0.1250000000000000  0.9614241499999991  0.3361768899999973   F   F   F
  0.1250000000000000  0.5385758500000009  0.5861768899999973   F   F   F
  0.1298328941839841  0.2338020204590023  0.7258737444247103   T   T   T
  0.1250000000000000  0.2753684400000012  0.4774012150000004   F   F   F
  0.3750000000000000  0.7753684400000012  0.2725987849999996   F   F   F
  0.3750000000000000  0.7246315599999988  0.5225987849999996   F   F   F
  0.3750000000000000  0.0563517900000008  0.5356808650000033   F   F   F
  0.3750000000000000  0.4436482099999992  0.2856808650000033   F   F   F
  0.1250000000000000  0.9436482099999992  0.4643191349999967   F   F   F
  0.1312554057674689  0.5581114409446428  0.7142836248049349   T   T   T
  0.8750000000000000  0.3493829800000015  0.5448294500000017   F   F   F
  0.8750000000000000  0.1506170199999985  0.2948294500000017   F   F   F
  0.6250000000000000  0.6506170199999985  0.4551705499999983   F   F   F
  0.6244739019691821  0.8473278636355346  0.6990995255365107   T   T   T
  0.8750000000000000  0.0503058099999976  0.5972022650000000   F   F   F
  0.8750000000000000  0.4496941900000024  0.3472022650000000   F   F   F
  0.6250000000000000  0.9496941900000024  0.4027977350000000   F   F   F
  0.6250000000000000  0.5503058099999976  0.6527977350000000   F   F   F
  0.6250000000000000  0.1939972400000016  0.6660201099999981   F   F   F
  0.6250000000000000  0.3060027599999984  0.4160201099999981   F   F   F
  0.8750000000000000  0.8060027599999984  0.3339798900000019   F   F   F
  0.8750000000000000  0.6939972400000016  0.5839798900000019   F   F   F
  0.6250000000000000  0.8914889200000005  0.5303910250000001   F   F   F
  0.6250000000000000  0.6085110799999995  0.2803910250000001   F   F   F
  0.8750000000000000  0.1085110799999995  0.4696089749999999   F   F   F
  0.8769810692689646  0.3910638206040744  0.7179817327380249   T   T   T
  0.6250000000000000  0.2023966300000026  0.5992582249999998   F   F   F
  0.6250000000000000  0.2976033699999974  0.3492582249999998   F   F   F
  0.8750000000000000  0.7976033699999974  0.4007417750000002   F   F   F
  0.8750000000000000  0.7023966300000026  0.6507417750000002   F   F   F
  0.6250000000000000  0.8679766999999998  0.5912555049999995   F   F   F
  0.6250000000000000  0.6320233000000002  0.3412555049999995   F   F   F
  0.8750000000000000  0.1320233000000002  0.4087444950000005   F   F   F
  0.8750000000000000  0.3679766999999998  0.6587444950000005   F   F   F
  0.8750000000000000  0.0385758500000009  0.6638231100000027   F   F   F
  0.8750000000000000  0.4614241499999991  0.4138231100000027   F   F   F
  0.6250000000000000  0.9614241499999991  0.3361768899999973   F   F   F
  0.6250000000000000  0.5385758500000009  0.5861768899999973   F   F   F
  0.6202508745710418  0.2352588862425762  0.7264080057321110   T   T   T
  0.6250000000000000  0.2753684400000012  0.4774012150000004   F   F   F
  0.8750000000000000  0.7753684400000012  0.2725987849999996   F   F   F
  0.8750000000000000  0.7246315599999988  0.5225987849999996   F   F   F
  0.8750000000000000  0.0563517900000008  0.5356808650000033   F   F   F
  0.8750000000000000  0.4436482099999992  0.2856808650000033   F   F   F
  0.6250000000000000  0.9436482099999992  0.4643191349999967   F   F   F
  0.6217362342663009  0.5573690424367399  0.7141299570767998   T   T   T
  0.4047282394055927  0.3635450243587073  0.7765823741006628   T   T   T
  0.3726774909936665  0.4284632118791123  0.7661185622106714   T   T   T
 
  0.00000000E+00  0.00000000E+00  0.00000000E+00
  0.00000000E+00  0.00000000E+00  0.00000000E+00
  0.00000000E+00  0.00000000E+00  0.00000000E+00
  0.00000000E+00  0.00000000E+00  0.00000000E+00
  0.00000000E+00  0.00000000E+00  0.00000000E+00
  0.00000000E+00  0.00000000E+00  0.00000000E+00
  0.00000000E+00  0.00000000E+00  0.00000000E+00
  0.00000000E+00  0.00000000E+00  0.00000000E+00
  0.00000000E+00  0.00000000E+00  0.00000000E+00
  0.00000000E+00  0.00000000E+00  0.00000000E+00
  0.00000000E+00  0.00000000E+00  0.00000000E+00
  0.00000000E+00  0.00000000E+00  0.00000000E+00
  0.00000000E+00  0.00000000E+00  0.00000000E+00
  0.00000000E+00  0.00000000E+00  0.00000000E+00
  0.00000000E+00  0.00000000E+00  0.00000000E+00
  0.00000000E+00  0.00000000E+00  0.00000000E+00
  0.00000000E+00  0.00000000E+00  0.00000000E+00
  0.00000000E+00  0.00000000E+00  0.00000000E+00
  0.00000000E+00  0.00000000E+00  0.00000000E+00
  0.00000000E+00  0.00000000E+00  0.00000000E+00
  0.00000000E+00  0.00000000E+00  0.00000000E+00
  0.00000000E+00  0.00000000E+00  0.00000000E+00
  0.00000000E+00  0.00000000E+00  0.00000000E+00
  0.00000000E+00  0.00000000E+00  0.00000000E+00
  0.00000000E+00  0.00000000E+00  0.00000000E+00
  0.00000000E+00  0.00000000E+00  0.00000000E+00
  0.00000000E+00  0.00000000E+00  0.00000000E+00
  0.00000000E+00  0.00000000E+00  0.00000000E+00
  0.00000000E+00  0.00000000E+00  0.00000000E+00
  0.00000000E+00  0.00000000E+00  0.00000000E+00
  0.00000000E+00  0.00000000E+00  0.00000000E+00
  0.00000000E+00  0.00000000E+00  0.00000000E+00
  0.00000000E+00  0.00000000E+00  0.00000000E+00
  0.00000000E+00  0.00000000E+00  0.00000000E+00
  0.00000000E+00  0.00000000E+00  0.00000000E+00
  0.00000000E+00  0.00000000E+00  0.00000000E+00
  0.00000000E+00  0.00000000E+00  0.00000000E+00
  0.00000000E+00  0.00000000E+00  0.00000000E+00
  0.00000000E+00  0.00000000E+00  0.00000000E+00
  0.00000000E+00  0.00000000E+00  0.00000000E+00
  0.00000000E+00  0.00000000E+00  0.00000000E+00
  0.00000000E+00  0.00000000E+00  0.00000000E+00
  0.00000000E+00  0.00000000E+00  0.00000000E+00
  0.00000000E+00  0.00000000E+00  0.00000000E+00
  0.00000000E+00  0.00000000E+00  0.00000000E+00
  0.00000000E+00  0.00000000E+00  0.00000000E+00
  0.00000000E+00  0.00000000E+00  0.00000000E+00
  0.00000000E+00  0.00000000E+00  0.00000000E+00
  0.00000000E+00  0.00000000E+00  0.00000000E+00
  0.00000000E+00  0.00000000E+00  0.00000000E+00
  0.00000000E+00  0.00000000E+00  0.00000000E+00
  0.00000000E+00  0.00000000E+00  0.00000000E+00
  0.00000000E+00  0.00000000E+00  0.00000000E+00
  0.00000000E+00  0.00000000E+00  0.00000000E+00
  0.00000000E+00  0.00000000E+00  0.00000000E+00
  0.00000000E+00  0.00000000E+00  0.00000000E+00
  0.00000000E+00  0.00000000E+00  0.00000000E+00
  0.00000000E+00  0.00000000E+00  0.00000000E+00
  0.00000000E+00  0.00000000E+00  0.00000000E+00
  0.00000000E+00  0.00000000E+00  0.00000000E+00
  0.00000000E+00  0.00000000E+00  0.00000000E+00
  0.00000000E+00  0.00000000E+00  0.00000000E+00
  0.00000000E+00  0.00000000E+00  0.00000000E+00
  0.00000000E+00  0.00000000E+00  0.00000000E+00
  0.00000000E+00  0.00000000E+00  0.00000000E+00
  0.00000000E+00  0.00000000E+00  0.00000000E+00
  0.00000000E+00  0.00000000E+00  0.00000000E+00
  0.00000000E+00  0.00000000E+00  0.00000000E+00
  0.00000000E+00  0.00000000E+00  0.00000000E+00
  0.00000000E+00  0.00000000E+00  0.00000000E+00
  0.00000000E+00  0.00000000E+00  0.00000000E+00
  0.00000000E+00  0.00000000E+00  0.00000000E+00
  0.00000000E+00  0.00000000E+00  0.00000000E+00
  0.00000000E+00  0.00000000E+00  0.00000000E+00
