Rb Sb Se H O
 1.0000000000000000
     8.3414327799999999    0.0000000000000000    0.0000000000000005
    -0.0000000000000008   12.4635844099999993    0.0000000000000008
     0.0000000000000000    0.0000000000000000   45.5808079399999997
Rb Sb Se H O
8 24 40 1 1
Selective dynamics
Cartesian
  3.1280372924999997  4.3545642626473446 24.8337665205058293   F   F   F
  3.1280372925000002  1.8772279423526566 13.4385645355058294   F   F   F
  1.0426790974999995  8.1090201473526555 20.7470414194941668   F   F   F
  1.0472394458981715 10.5551357851144676 31.8609768939784601   T   T   T
  3.1280372925000002  0.6269907092484235 27.2209617422979804   F   F   F
  3.1280372924999997  5.6048014957515759 15.8257597572979822   F   F   F
  1.0426790974999993 11.8365937007515765 18.3598461977020158   F   F   F
  1.0426790974999995  6.8587829142484242 29.7550481827020192   F   F   F
  1.0426790974999998  2.4179009760470276 30.3577347180876771   F   F   F
  1.0426790974999998  3.8138912289529734 18.9625327330876772   F   F   F
  3.1280372924999997 10.0456834339529717 15.2230732219123208   F   F   F
  3.1280372924999997  8.6496931810470254 26.6182752069123225   F   F   F
  1.0426790974999993 11.1111474049997376 24.1756514436247407   F   F   F
  1.0426790974999995  7.5842292100002622 12.7804494586247390   F   F   F
  3.1280372925000002  1.3524370050002625 21.4051564963752590   F   F   F
  3.1391557726062334  4.9914966699589067 32.9041048503324731   T   T   T
  1.0426790974999998  2.5225874823045378 27.3146740601903062   F   F   F
  1.0426790974999998  3.7092047226954632 15.9194720751903080   F   F   F
  3.1280372924999997  9.9409969276954619 18.2661338798096935   F   F   F
  3.1280372924999997  8.7543796873045370 29.6613358648096934   F   F   F
  1.0426790974999993 10.8181008663632472 26.9499036168727137   F   F   F
  1.0426790974999995  7.8772757486367517 15.5547016318727156   F   F   F
  3.1280372925000002  1.6454835436367523 18.6309043231272859   F   F   F
  3.1280372924999997  4.5863086613632484 30.0261063081272859   F   F   F
  3.1280372925000002  0.4807933626624981 30.2575936830434955   F   F   F
  3.1280372924999997  5.7509988423375011 18.8623916980434956   F   F   F
  1.0426790974999993 11.9827910473375017 15.3232142569565042   F   F   F
  1.0426790974999995  6.7125855676624981 26.7184162419565041   F   F   F
  1.0829923594685491  2.9140112172193655 33.0859117333114483   T   T   T
  1.0426790974999998  3.4320777957900206 21.7603330912376514   F   F   F
  3.1280372924999997  9.6638700007900198 12.4252728637623484   F   F   F
  3.1280372924999997  9.0315066142099809 23.8204748487623483   F   F   F
  3.1280372925000002  0.7023452913195940 24.4167666246980666   F   F   F
  3.1280372924999997  5.5294469136804052 13.0215646396980684   F   F   F
  1.0426790974999993 11.7612391186804057 21.1640413153019331   F   F   F
  1.0948581442209935  6.9560690544003156 32.5576247169208699   T   T   T
  7.2987536824999992  4.3545642626473446 24.8337665205058293   F   F   F
  7.2987536825000001  1.8772279423526566 13.4385645355058294   F   F   F
  5.2133954874999997  8.1090201473526555 20.7470414194941668   F   F   F
  5.2090070761402583 10.5607423513664944 31.8655212044248231   T   T   T
  7.2987536825000001  0.6269907092484235 27.2209617422979804   F   F   F
  7.2987536824999992  5.6048014957515759 15.8257597572979822   F   F   F
  5.2133954874999997 11.8365937007515765 18.3598461977020158   F   F   F
  5.2133954874999997  6.8587829142484242 29.7550481827020192   F   F   F
  5.2133954874999997  2.4179009760470276 30.3577347180876771   F   F   F
  5.2133954874999997  3.8138912289529734 18.9625327330876772   F   F   F
  7.2987536824999992 10.0456834339529717 15.2230732219123208   F   F   F
  7.2987536824999992  8.6496931810470254 26.6182752069123225   F   F   F
  5.2133954874999997 11.1111474049997376 24.1756514436247407   F   F   F
  5.2133954874999997  7.5842292100002622 12.7804494586247390   F   F   F
  7.2987536825000001  1.3524370050002625 21.4051564963752590   F   F   F
  7.3152786386396187  4.8740569377960137 32.7261874643602226   T   T   T
  5.2133954874999997  2.5225874823045378 27.3146740601903062   F   F   F
  5.2133954874999997  3.7092047226954632 15.9194720751903080   F   F   F
  7.2987536824999992  9.9409969276954619 18.2661338798096935   F   F   F
  7.2987536824999992  8.7543796873045370 29.6613358648096934   F   F   F
  5.2133954874999997 10.8181008663632472 26.9499036168727137   F   F   F
  5.2133954874999997  7.8772757486367517 15.5547016318727156   F   F   F
  7.2987536825000001  1.6454835436367523 18.6309043231272859   F   F   F
  7.2987536824999992  4.5863086613632484 30.0261063081272859   F   F   F
  7.2987536825000001  0.4807933626624981 30.2575936830434955   F   F   F
  7.2987536824999992  5.7509988423375011 18.8623916980434956   F   F   F
  5.2133954874999997 11.9827910473375017 15.3232142569565042   F   F   F
  5.2133954874999997  6.7125855676624981 26.7184162419565041   F   F   F
  5.1737809769705816  2.9321689868869614 33.1102637953539016   T   T   T
  5.2133954874999997  3.4320777957900206 21.7603330912376514   F   F   F
  7.2987536824999992  9.6638700007900198 12.4252728637623484   F   F   F
  7.2987536824999992  9.0315066142099809 23.8204748487623483   F   F   F
  7.2987536825000001  0.7023452913195940 24.4167666246980666   F   F   F
  7.2987536824999992  5.5294469136804052 13.0215646396980684   F   F   F
  5.2133954874999997 11.7612391186804057 21.1640413153019331   F   F   F
  5.1861710050226772  6.9468161079311832 32.5506204177179796   T   T   T
  3.3760134031694786  4.5310740979302508 35.3972520434715747   T   T   T
  3.1086642397427044  5.3401874078350691 34.9203030433934956   T   T   T
