Na Zn Se H O                            
   1.00000000000000     
    12.5737654922200619    0.0000000000000000    0.0000000000000008
    -0.0000000000000008   13.6573092344788751    0.0000000000000008
     0.0000000000000000    0.0000000000000000   35.6163122855555727
   Na   Zn   Se   H    O 
    32    16    32     1     1
Selective dynamics
Direct
  0.9897258511495153  0.4475680767821117  0.6685862049578191   T   T   T
  0.2500000000000000  0.4225510750000012  0.3701131300000000   F   F   F
  0.0000000000000000  0.0774489249999988  0.3701131300000000   F   F   F
  0.1363206858398485  0.2330660912836748  0.6409017862067046   T   T   T
  0.2500000000000000  0.0774489249999988  0.4632202033333357   F   F   F
  0.0000000000000000  0.1725510750000012  0.5367797966666643   F   F   F
  0.2500000000000000  0.3274489249999988  0.5367797966666643   F   F   F
  0.0000000000000000  0.4225510750000012  0.4632202033333357   F   F   F
  0.3722100094991347  0.0036954720843880  0.5856959310285532   T   T   T
  0.1328122627260058  0.9954383993464759  0.5835450617635658   T   T   T
  0.1250000000000000  0.2500000000000000  0.4166666666666643   F   F   F
  0.3750000000000000  0.2500000000000000  0.4166666666666643   F   F   F
  0.2547688037712206  0.4118563908798549  0.6259354621486821   T   T   T
  0.0000000000000000  0.3574659324999985  0.3789207416666684   F   F   F
  0.2500000000000000  0.1425340675000015  0.3789207416666684   F   F   F
  0.0009300331082684  0.0644973199776899  0.6275969242270421   T   T   T
  0.0000000000000000  0.1425340675000015  0.4544125916666673   F   F   F
  0.2500000000000000  0.1074659324999985  0.5455874083333327   F   F   F
  0.0000000000000000  0.3925340675000015  0.5455874083333327   F   F   F
  0.2500000000000000  0.3574659324999985  0.4544125916666673   F   F   F
  0.0007197896062081  0.8372539592836219  0.6271366981996351   T   T   T
  0.2500000000000000  0.9225510750000012  0.3701131300000000   F   F   F
  0.0000000000000000  0.5774489249999988  0.3701131300000000   F   F   F
  0.2526182795614744  0.6643170495899611  0.6262561223602390   T   T   T
  0.2500000000000000  0.5774489249999988  0.4632202033333357   F   F   F
  0.0000000000000000  0.6725510750000012  0.5367797966666643   F   F   F
  0.2500000000000000  0.8274489249999988  0.5367797966666643   F   F   F
  0.0000000000000000  0.9225510750000012  0.4632202033333357   F   F   F
  0.3780777822561348  0.5035305820015452  0.5838136871643655   T   T   T
  0.1242517451612528  0.4975153788043869  0.5840527409851219   T   T   T
  0.1250000000000000  0.7500000000000000  0.4166666666666643   F   F   F
  0.3750000000000000  0.7500000000000000  0.4166666666666643   F   F   F
  0.2556575545047579  0.8820730866605686  0.6203909965169530   T   T   T
  0.0000000000000000  0.8574659324999985  0.3789207416666684   F   F   F
  0.2500000000000000  0.6425340675000015  0.3789207416666684   F   F   F
  0.0004636987817292  0.6149355049140723  0.6220838111708176   T   T   T
  0.0000000000000000  0.6425340675000015  0.4544125916666673   F   F   F
  0.2500000000000000  0.6074659324999985  0.5455874083333327   F   F   F
  0.0000000000000000  0.8925340675000015  0.5455874083333327   F   F   F
  0.2500000000000000  0.8574659324999985  0.4544125916666673   F   F   F
  0.4946396541754510  0.3141985866714734  0.6238532178945491   T   T   T
  0.7500000000000000  0.4225510750000012  0.3701131300000000   F   F   F
  0.5000000000000000  0.0774489249999988  0.3701131300000000   F   F   F
  0.8642589882932086  0.2329002563863227  0.6404030425922471   T   T   T
  0.7500000000000000  0.0774489249999988  0.4632202033333357   F   F   F
  0.5000000000000000  0.1725510750000012  0.5367797966666643   F   F   F
  0.7500000000000000  0.3274489249999988  0.5367797966666643   F   F   F
  0.5000000000000000  0.4225510750000012  0.4632202033333357   F   F   F
  0.8675810432544395  0.9962752164852873  0.5838506033422703   T   T   T
  0.6276767690752934  0.0037747383278344  0.5855601363820426   T   T   T
  0.6250000000000000  0.2500000000000000  0.4166666666666643   F   F   F
  0.8750000000000000  0.2500000000000000  0.4166666666666643   F   F   F
  0.7470323608872889  0.4126162509807187  0.6260540109230419   T   T   T
  0.5000000000000000  0.3574659324999985  0.3789207416666684   F   F   F
  0.7500000000000000  0.1425340675000015  0.3789207416666684   F   F   F
  0.4999410360176171  0.0984226700592288  0.6231882582563699   T   T   T
  0.5000000000000000  0.1425340675000015  0.4544125916666673   F   F   F
  0.7500000000000000  0.1074659324999985  0.5455874083333327   F   F   F
  0.5000000000000000  0.3925340675000015  0.5455874083333327   F   F   F
  0.7500000000000000  0.3574659324999985  0.4544125916666673   F   F   F
  0.4998458518817586  0.8346089635366596  0.6257971200939494   T   T   T
  0.7500000000000000  0.9225510750000012  0.3701131300000000   F   F   F
  0.5000000000000000  0.5774489249999988  0.3701131300000000   F   F   F
  0.7474700525482660  0.6649943413619255  0.6259980676807757   T   T   T
  0.7500000000000000  0.5774489249999988  0.4632202033333357   F   F   F
  0.5000000000000000  0.6725510750000012  0.5367797966666643   F   F   F
  0.7500000000000000  0.8274489249999988  0.5367797966666643   F   F   F
  0.5000000000000000  0.9225510750000012  0.4632202033333357   F   F   F
  0.8762217992412999  0.4982673775638631  0.5837608684151760   T   T   T
  0.6221463293214740  0.5030437345347281  0.5840190517945700   T   T   T
  0.6250000000000000  0.7500000000000000  0.4166666666666643   F   F   F
  0.8750000000000000  0.7500000000000000  0.4166666666666643   F   F   F
  0.7446118444405343  0.8825809342166551  0.6203256786792508   T   T   T
  0.5000000000000000  0.8574659324999985  0.3789207416666684   F   F   F
  0.7500000000000000  0.6425340675000015  0.3789207416666684   F   F   F
  0.5003634565112236  0.6150862028124138  0.6212638961494292   T   T   T
  0.5000000000000000  0.6425340675000015  0.4544125916666673   F   F   F
  0.7500000000000000  0.6074659324999985  0.5455874083333327   F   F   F
  0.5000000000000000  0.8925340675000015  0.5455874083333327   F   F   F
  0.7500000000000000  0.8574659324999985  0.4544125916666673   F   F   F
  0.9974633682439773  0.2557169144950961  0.7005276007023440   T   T   T
  0.9998783415324723  0.2907350519408709  0.6767971207105177   T   T   T
 
  0.00000000E+00  0.00000000E+00  0.00000000E+00
  0.00000000E+00  0.00000000E+00  0.00000000E+00
  0.00000000E+00  0.00000000E+00  0.00000000E+00
  0.00000000E+00  0.00000000E+00  0.00000000E+00
  0.00000000E+00  0.00000000E+00  0.00000000E+00
  0.00000000E+00  0.00000000E+00  0.00000000E+00
  0.00000000E+00  0.00000000E+00  0.00000000E+00
  0.00000000E+00  0.00000000E+00  0.00000000E+00
  0.00000000E+00  0.00000000E+00  0.00000000E+00
  0.00000000E+00  0.00000000E+00  0.00000000E+00
  0.00000000E+00  0.00000000E+00  0.00000000E+00
  0.00000000E+00  0.00000000E+00  0.00000000E+00
  0.00000000E+00  0.00000000E+00  0.00000000E+00
  0.00000000E+00  0.00000000E+00  0.00000000E+00
  0.00000000E+00  0.00000000E+00  0.00000000E+00
  0.00000000E+00  0.00000000E+00  0.00000000E+00
  0.00000000E+00  0.00000000E+00  0.00000000E+00
  0.00000000E+00  0.00000000E+00  0.00000000E+00
  0.00000000E+00  0.00000000E+00  0.00000000E+00
  0.00000000E+00  0.00000000E+00  0.00000000E+00
  0.00000000E+00  0.00000000E+00  0.00000000E+00
  0.00000000E+00  0.00000000E+00  0.00000000E+00
  0.00000000E+00  0.00000000E+00  0.00000000E+00
  0.00000000E+00  0.00000000E+00  0.00000000E+00
  0.00000000E+00  0.00000000E+00  0.00000000E+00
  0.00000000E+00  0.00000000E+00  0.00000000E+00
  0.00000000E+00  0.00000000E+00  0.00000000E+00
  0.00000000E+00  0.00000000E+00  0.00000000E+00
  0.00000000E+00  0.00000000E+00  0.00000000E+00
  0.00000000E+00  0.00000000E+00  0.00000000E+00
  0.00000000E+00  0.00000000E+00  0.00000000E+00
  0.00000000E+00  0.00000000E+00  0.00000000E+00
  0.00000000E+00  0.00000000E+00  0.00000000E+00
  0.00000000E+00  0.00000000E+00  0.00000000E+00
  0.00000000E+00  0.00000000E+00  0.00000000E+00
  0.00000000E+00  0.00000000E+00  0.00000000E+00
  0.00000000E+00  0.00000000E+00  0.00000000E+00
  0.00000000E+00  0.00000000E+00  0.00000000E+00
  0.00000000E+00  0.00000000E+00  0.00000000E+00
  0.00000000E+00  0.00000000E+00  0.00000000E+00
  0.00000000E+00  0.00000000E+00  0.00000000E+00
  0.00000000E+00  0.00000000E+00  0.00000000E+00
  0.00000000E+00  0.00000000E+00  0.00000000E+00
  0.00000000E+00  0.00000000E+00  0.00000000E+00
  0.00000000E+00  0.00000000E+00  0.00000000E+00
  0.00000000E+00  0.00000000E+00  0.00000000E+00
  0.00000000E+00  0.00000000E+00  0.00000000E+00
  0.00000000E+00  0.00000000E+00  0.00000000E+00
  0.00000000E+00  0.00000000E+00  0.00000000E+00
  0.00000000E+00  0.00000000E+00  0.00000000E+00
  0.00000000E+00  0.00000000E+00  0.00000000E+00
  0.00000000E+00  0.00000000E+00  0.00000000E+00
  0.00000000E+00  0.00000000E+00  0.00000000E+00
  0.00000000E+00  0.00000000E+00  0.00000000E+00
  0.00000000E+00  0.00000000E+00  0.00000000E+00
  0.00000000E+00  0.00000000E+00  0.00000000E+00
  0.00000000E+00  0.00000000E+00  0.00000000E+00
  0.00000000E+00  0.00000000E+00  0.00000000E+00
  0.00000000E+00  0.00000000E+00  0.00000000E+00
  0.00000000E+00  0.00000000E+00  0.00000000E+00
  0.00000000E+00  0.00000000E+00  0.00000000E+00
  0.00000000E+00  0.00000000E+00  0.00000000E+00
  0.00000000E+00  0.00000000E+00  0.00000000E+00
  0.00000000E+00  0.00000000E+00  0.00000000E+00
  0.00000000E+00  0.00000000E+00  0.00000000E+00
  0.00000000E+00  0.00000000E+00  0.00000000E+00
  0.00000000E+00  0.00000000E+00  0.00000000E+00
  0.00000000E+00  0.00000000E+00  0.00000000E+00
  0.00000000E+00  0.00000000E+00  0.00000000E+00
  0.00000000E+00  0.00000000E+00  0.00000000E+00
  0.00000000E+00  0.00000000E+00  0.00000000E+00
  0.00000000E+00  0.00000000E+00  0.00000000E+00
  0.00000000E+00  0.00000000E+00  0.00000000E+00
  0.00000000E+00  0.00000000E+00  0.00000000E+00
  0.00000000E+00  0.00000000E+00  0.00000000E+00
  0.00000000E+00  0.00000000E+00  0.00000000E+00
  0.00000000E+00  0.00000000E+00  0.00000000E+00
  0.00000000E+00  0.00000000E+00  0.00000000E+00
  0.00000000E+00  0.00000000E+00  0.00000000E+00
  0.00000000E+00  0.00000000E+00  0.00000000E+00
  0.00000000E+00  0.00000000E+00  0.00000000E+00
  0.00000000E+00  0.00000000E+00  0.00000000E+00
