Na Zn Se H O
 1.0000000000000000
    12.5737654922200619    0.0000000000000000    0.0000000000000008
    -0.0000000000000008   13.6573092344788751    0.0000000000000008
     0.0000000000000000    0.0000000000000000   35.6163122855555727
Na Zn Se H O
32 16 32 1 1
Selective dynamics
Cartesian
 -0.1291847382781273  6.1125756280942580 23.8125750655920321   T   T   T
  3.1434413730550150  5.7709106986364755 13.1820648190644238   F   F   F
 -0.0000000000000001  1.0577439186029627 13.1820648190644238   F   F   F
  1.7140643354888603  3.1830556807323860 22.8265581619082560   T   T   T
  3.1434413730550155  1.0577439186029627 16.4981954188985469   F   F   F
 -0.0000000000000001  2.3565833900167577 19.1181168666570223   F   F   F
  3.1434413730550150  4.4720712272226804 19.1181168666570223   F   F   F
 -0.0000000000000004  5.7709106986364755 16.4981954188985469   F   F   F
  4.6800813732990871  0.0504702050238848 20.8603291838922544   T   T   T
  1.6699502460078950 -0.0622991907293908 20.7837231524650363   T   T   T
  1.5717206865275075  3.4143273086197188 14.8401301189814880   F   F   F
  4.7151620595825232  3.4143273086197188 14.8401301189814845   F   F   F
  3.2034031933527731  5.6248500904425418 22.2935128904910940   T   T   T
 -0.0000000000000003  4.8820227809438519 13.4957594666743272   F   F   F
  3.1434413730550155  1.9466318362955857 13.4957594666743272   F   F   F
  0.0116940182033431  0.8808598437304433 22.3526880427244592   T   T   T
 -0.0000000000000001  1.9466318362955857 16.1845007712886435   F   F   F
  3.1434413730550155  1.4676954723241331 19.4318115142669221   F   F   F
 -0.0000000000000003  5.3609591449153040 19.4318115142669221   F   F   F
  3.1434413730550150  4.8820227809438528 16.1845007712886435   F   F   F
  0.0090504657121919 11.4346362297281807 22.3362964888104081   T   T   T
  3.1434413730550146 12.5995653158759140 13.1820648190644238   F   F   F
 -0.0000000000000005  7.8863985358424005 13.1820648190644238   F   F   F
  3.1763630062540815  9.0727833759867664 22.3049336247234216   T   T   T
  3.1434413730550150  7.8863985358424005 16.4981954188985469   F   F   F
 -0.0000000000000006  9.1852380072561957 19.1181168666570223   F   F   F
  3.1434413730550146 11.3007258444621179 19.1181168666570223   F   F   F
 -0.0000000000000008 12.5995653158759140 16.4981954188985469   F   F   F
  4.7538613719072753  6.8768728674122324 20.7932905986277277   T   T   T
  1.5623123056566981  6.7947213772404504 20.8018048141607963   T   T   T
  1.5717206865275071 10.2429819258591568 14.8401301189814880   F   F   F
  4.7151620595825232 10.2429819258591568 14.8401301189814845   F   F   F
  3.2145781366572868 12.0467449119346313 22.0960394710947199   T   T   T
 -0.0000000000000007 11.7106773981832895 13.4957594666743272   F   F   F
  3.1434413730550150  8.7752864535350241 13.4957594666743272   F   F   F
  0.0058304397405204  8.3983643498719225 22.1563312864485411   T   T   T
 -0.0000000000000005  8.7752864535350241 16.1845007712886435   F   F   F
  3.1434413730550150  8.2963500895635711 19.4318115142669221   F   F   F
 -0.0000000000000007 12.1896137621547425 19.4318115142669221   F   F   F
  3.1434413730550146 11.7106773981832895 16.1845007712886435   F   F   F
  6.2194830147549638  4.2911072592085686 22.2193510288809968   T   T   T
  9.4303241191650464  5.7709106986364755 13.1820648190644238   F   F   F
  6.2868827461100310  1.0577439186029627 13.1820648190644238   F   F   F
 10.8669898433421928  3.1807908222574128 22.8087947535853210   T   T   T
  9.4303241191650464  1.0577439186029627 16.4981954188985469   F   F   F
  6.2868827461100310  2.3565833900167577 19.1181168666570223   F   F   F
  9.4303241191650464  4.4720712272226804 19.1181168666570223   F   F   F
  6.2868827461100310  5.7709106986364755 16.4981954188985469   F   F   F
 10.9087605833769938 -0.0508705202919373 20.7946054167483183   T   T   T
  7.8922604992670689  0.0515527686225141 20.8554926793554571   T   T   T
  7.8586034326375387  3.4143273086197188 14.8401301189814880   F   F   F
 11.0020448056925542  3.4143273086197188 14.8401301189814845   F   F   F
  9.3930097208962557  5.6352277348150528 22.2977351606597054   T   T   T
  6.2868827461100310  4.8820227809438519 13.4957594666743272   F   F   F
  9.4303241191650464  1.9466318362955857 13.4957594666743272   F   F   F
  6.2861413468230367  1.3441888406819751 22.1956676187502140   T   T   T
  6.2868827461100310  1.9466318362955857 16.1845007712886435   F   F   F
  9.4303241191650464  1.4676954723241331 19.4318115142669221   F   F   F
  6.2868827461100310  5.3609591449153040 19.4318115142669221   F   F   F
  9.4303241191650464  4.8820227809438528 16.1845007712886435   F   F   F
  6.2849445238201795 11.3985127048880308 22.2885856566674967   T   T   T
  9.4303241191650464 12.5995653158759140 13.1820648190644238   F   F   F
  6.2868827461100310  7.8863985358424005 13.1820648190644238   F   F   F
  9.3985131531992607  9.0820333591584514 22.2957426686728333   T   T   T
  9.4303241191650464  7.8863985358424005 16.4981954188985469   F   F   F
  6.2868827461100310  9.1852380072561957 19.1181168666570223   F   F   F
  9.4303241191650464 11.3007258444621179 19.1181168666570223   F   F   F
  6.2868827461100310 12.5995653158759140 16.4981954188985469   F   F   F
 11.0174074228311891  6.8049916568425326 20.7914093895620411   T   T   T
  7.8227220467336895  6.8702238410078573 20.8006049294295465   T   T   T
  7.8586034326375387 10.2429819258591568 14.8401301189814880   F   F   F
 11.0020448056925542 10.2429819258591568 14.8401301189814845   F   F   F
  9.3625747147247544 12.0536807430521478 22.0937130905893824   T   T   T
  6.2868827461100310 11.7106773981832895 13.4957594666743272   F   F   F
  9.4303241191650464  8.7752864535350241 13.4957594666743272   F   F   F
  6.2914527630487456  8.4004224776705136 22.1271289369989077   T   T   T
  6.2868827461100310  8.7752864535350241 16.1845007712886435   F   F   F
  9.4303241191650464  8.2963500895635711 19.4318115142669221   F   F   F
  6.2868827461100310 12.1896137621547425 19.4318115142669221   F   F   F
  9.4303241191650464 11.7106773981832895 16.1845007712886435   F   F   F
 12.5418704793797389  3.4924049777462844 24.9502097912656602   T   T   T
 12.5722357871792543  3.9706585096587030 24.1050176051906035   T   T   T
