Co Te Pd                                
   1.00000000000000     
    10.5874116772654627    0.0000000000000000    0.0000000000000006
    -0.0000000000000008   12.7555817893690921    0.0000000000000008
     0.0000000000000000    0.0000000000000000   33.8815957568399924
   Co   Te   Pd
    16    32    32
Selective dynamics
Direct
  0.1250021678553779  0.9999046178297988  0.5835461321237361   T   T   T
  0.3750007779749609  0.0000177060027653  0.5835541234040065   T   T   T
  0.3750000000000000  0.2500000000000000  0.4166666666666643   F   F   F
  0.1250000000000000  0.2500000000000000  0.4166666666666643   F   F   F
  0.0000000000000000  0.1425324025000023  0.3686838316666652   F   F   F
  0.2499226172330751  0.1099600321896048  0.6333051074252083   T   T   T
  0.0000806446968156  0.3900845340076700  0.6333148721783317   T   T   T
  0.2500000000000000  0.3574675974999977  0.3686838316666652   F   F   F
  0.2500000000000000  0.3925324025000023  0.5353504983333366   F   F   F
  0.0000000000000000  0.3574675974999977  0.4646495016666634   F   F   F
  0.2500000000000000  0.1425324025000023  0.4646495016666634   F   F   F
  0.0000000000000000  0.1074675974999977  0.5353504983333366   F   F   F
  0.2499339798395255  0.3151195875378932  0.6161152620127410   T   T   T
  0.2500000000000000  0.0662525600000023  0.3813663766666693   F   F   F
  0.0000635906306101  0.1849131577736784  0.6161183245810591   T   T   T
  0.0000000000000000  0.4337474399999977  0.3813663766666693   F   F   F
  0.0000000000000000  0.0662525600000023  0.4519669566666664   F   F   F
  0.0000000000000000  0.3162525600000023  0.5480330433333336   F   F   F
  0.2500000000000000  0.4337474399999977  0.4519669566666664   F   F   F
  0.2500000000000000  0.1837474399999977  0.5480330433333336   F   F   F
  0.1250546211125894  0.5001259217433471  0.5835417361047490   T   T   T
  0.3750131331619002  0.5000018894874927  0.5835611037463053   T   T   T
  0.3750000000000000  0.7500000000000000  0.4166666666666643   F   F   F
  0.1250000000000000  0.7500000000000000  0.4166666666666643   F   F   F
  0.0000000000000000  0.6425324025000023  0.3686838316666652   F   F   F
  0.2498782663852666  0.6098538192382748  0.6333401328745722   T   T   T
  0.0000998876386262  0.8901576860227394  0.6333340783586507   T   T   T
  0.2500000000000000  0.8574675974999977  0.3686838316666652   F   F   F
  0.2500000000000000  0.8925324025000023  0.5353504983333366   F   F   F
  0.0000000000000000  0.8574675974999977  0.4646495016666634   F   F   F
  0.2500000000000000  0.6425324025000023  0.4646495016666634   F   F   F
  0.0000000000000000  0.6074675974999977  0.5353504983333366   F   F   F
  0.2499131414093299  0.8151118061206759  0.6161057261777856   T   T   T
  0.2500000000000000  0.5662525600000023  0.3813663766666693   F   F   F
  0.0000617204331022  0.6848869002365561  0.6161107084501651   T   T   T
  0.0000000000000000  0.9337474399999977  0.3813663766666693   F   F   F
  0.0000000000000000  0.5662525600000023  0.4519669566666664   F   F   F
  0.0000000000000000  0.8162525600000023  0.5480330433333336   F   F   F
  0.2500000000000000  0.9337474399999977  0.4519669566666664   F   F   F
  0.2500000000000000  0.6837474399999977  0.5480330433333336   F   F   F
  0.6249751180640217  0.9999238610462271  0.5835828846418423   T   T   T
  0.8749345342250479  0.0000364988093224  0.5835630513010344   T   T   T
  0.8750000000000000  0.2500000000000000  0.4166666666666643   F   F   F
  0.6250000000000000  0.2500000000000000  0.4166666666666643   F   F   F
  0.5000000000000000  0.1425324025000023  0.3686838316666652   F   F   F
  0.7501322323645283  0.1098837132107278  0.6333063937539336   T   T   T
  0.4998913259045352  0.3901376006365211  0.6333053190691587   T   T   T
  0.7500000000000000  0.3574675974999977  0.3686838316666652   F   F   F
  0.7500000000000000  0.3925324025000023  0.5353504983333366   F   F   F
  0.5000000000000000  0.3574675974999977  0.4646495016666634   F   F   F
  0.7500000000000000  0.1425324025000023  0.4646495016666634   F   F   F
  0.5000000000000000  0.1074675974999977  0.5353504983333366   F   F   F
  0.7500201411026595  0.3151677700137938  0.6161071405779381   T   T   T
  0.7500000000000000  0.0662525600000023  0.3813663766666693   F   F   F
  0.5000028221938493  0.1848578837753081  0.6161088853511458   T   T   T
  0.5000000000000000  0.4337474399999977  0.3813663766666693   F   F   F
  0.5000000000000000  0.0662525600000023  0.4519669566666664   F   F   F
  0.5000000000000000  0.3162525600000023  0.5480330433333336   F   F   F
  0.7500000000000000  0.4337474399999977  0.4519669566666664   F   F   F
  0.7500000000000000  0.1837474399999977  0.5480330433333336   F   F   F
  0.6250509196845329  0.5001311567343336  0.5835796908002209   T   T   T
  0.8749504333633737  0.5000246730078644  0.5835636768237720   T   T   T
  0.8750000000000000  0.7500000000000000  0.4166666666666643   F   F   F
  0.6250000000000000  0.7500000000000000  0.4166666666666643   F   F   F
  0.5000000000000000  0.6425324025000023  0.3686838316666652   F   F   F
  0.7501064868253948  0.6097665888035166  0.6333447202142111   T   T   T
  0.4998871657758670  0.8902225131202286  0.6333290581001734   T   T   T
  0.7500000000000000  0.8574675974999977  0.3686838316666652   F   F   F
  0.7500000000000000  0.8925324025000023  0.5353504983333366   F   F   F
  0.5000000000000000  0.8574675974999977  0.4646495016666634   F   F   F
  0.7500000000000000  0.6425324025000023  0.4646495016666634   F   F   F
  0.5000000000000000  0.6074675974999977  0.5353504983333366   F   F   F
  0.7499978413123145  0.8151388482246631  0.6160978852123549   T   T   T
  0.7500000000000000  0.5662525600000023  0.3813663766666693   F   F   F
  0.4999982020550036  0.6848550047608555  0.6161013560809607   T   T   T
  0.5000000000000000  0.9337474399999977  0.3813663766666693   F   F   F
  0.5000000000000000  0.5662525600000023  0.4519669566666664   F   F   F
  0.5000000000000000  0.8162525600000023  0.5480330433333336   F   F   F
  0.7500000000000000  0.9337474399999977  0.4519669566666664   F   F   F
  0.7500000000000000  0.6837474399999977  0.5480330433333336   F   F   F
 
  0.00000000E+00  0.00000000E+00  0.00000000E+00
  0.00000000E+00  0.00000000E+00  0.00000000E+00
  0.00000000E+00  0.00000000E+00  0.00000000E+00
  0.00000000E+00  0.00000000E+00  0.00000000E+00
  0.00000000E+00  0.00000000E+00  0.00000000E+00
  0.00000000E+00  0.00000000E+00  0.00000000E+00
  0.00000000E+00  0.00000000E+00  0.00000000E+00
  0.00000000E+00  0.00000000E+00  0.00000000E+00
  0.00000000E+00  0.00000000E+00  0.00000000E+00
  0.00000000E+00  0.00000000E+00  0.00000000E+00
  0.00000000E+00  0.00000000E+00  0.00000000E+00
  0.00000000E+00  0.00000000E+00  0.00000000E+00
  0.00000000E+00  0.00000000E+00  0.00000000E+00
  0.00000000E+00  0.00000000E+00  0.00000000E+00
  0.00000000E+00  0.00000000E+00  0.00000000E+00
  0.00000000E+00  0.00000000E+00  0.00000000E+00
  0.00000000E+00  0.00000000E+00  0.00000000E+00
  0.00000000E+00  0.00000000E+00  0.00000000E+00
  0.00000000E+00  0.00000000E+00  0.00000000E+00
  0.00000000E+00  0.00000000E+00  0.00000000E+00
  0.00000000E+00  0.00000000E+00  0.00000000E+00
  0.00000000E+00  0.00000000E+00  0.00000000E+00
  0.00000000E+00  0.00000000E+00  0.00000000E+00
  0.00000000E+00  0.00000000E+00  0.00000000E+00
  0.00000000E+00  0.00000000E+00  0.00000000E+00
  0.00000000E+00  0.00000000E+00  0.00000000E+00
  0.00000000E+00  0.00000000E+00  0.00000000E+00
  0.00000000E+00  0.00000000E+00  0.00000000E+00
  0.00000000E+00  0.00000000E+00  0.00000000E+00
  0.00000000E+00  0.00000000E+00  0.00000000E+00
  0.00000000E+00  0.00000000E+00  0.00000000E+00
  0.00000000E+00  0.00000000E+00  0.00000000E+00
  0.00000000E+00  0.00000000E+00  0.00000000E+00
  0.00000000E+00  0.00000000E+00  0.00000000E+00
  0.00000000E+00  0.00000000E+00  0.00000000E+00
  0.00000000E+00  0.00000000E+00  0.00000000E+00
  0.00000000E+00  0.00000000E+00  0.00000000E+00
  0.00000000E+00  0.00000000E+00  0.00000000E+00
  0.00000000E+00  0.00000000E+00  0.00000000E+00
  0.00000000E+00  0.00000000E+00  0.00000000E+00
  0.00000000E+00  0.00000000E+00  0.00000000E+00
  0.00000000E+00  0.00000000E+00  0.00000000E+00
  0.00000000E+00  0.00000000E+00  0.00000000E+00
  0.00000000E+00  0.00000000E+00  0.00000000E+00
  0.00000000E+00  0.00000000E+00  0.00000000E+00
  0.00000000E+00  0.00000000E+00  0.00000000E+00
  0.00000000E+00  0.00000000E+00  0.00000000E+00
  0.00000000E+00  0.00000000E+00  0.00000000E+00
  0.00000000E+00  0.00000000E+00  0.00000000E+00
  0.00000000E+00  0.00000000E+00  0.00000000E+00
  0.00000000E+00  0.00000000E+00  0.00000000E+00
  0.00000000E+00  0.00000000E+00  0.00000000E+00
  0.00000000E+00  0.00000000E+00  0.00000000E+00
  0.00000000E+00  0.00000000E+00  0.00000000E+00
  0.00000000E+00  0.00000000E+00  0.00000000E+00
  0.00000000E+00  0.00000000E+00  0.00000000E+00
  0.00000000E+00  0.00000000E+00  0.00000000E+00
  0.00000000E+00  0.00000000E+00  0.00000000E+00
  0.00000000E+00  0.00000000E+00  0.00000000E+00
  0.00000000E+00  0.00000000E+00  0.00000000E+00
  0.00000000E+00  0.00000000E+00  0.00000000E+00
  0.00000000E+00  0.00000000E+00  0.00000000E+00
  0.00000000E+00  0.00000000E+00  0.00000000E+00
  0.00000000E+00  0.00000000E+00  0.00000000E+00
  0.00000000E+00  0.00000000E+00  0.00000000E+00
  0.00000000E+00  0.00000000E+00  0.00000000E+00
  0.00000000E+00  0.00000000E+00  0.00000000E+00
  0.00000000E+00  0.00000000E+00  0.00000000E+00
  0.00000000E+00  0.00000000E+00  0.00000000E+00
  0.00000000E+00  0.00000000E+00  0.00000000E+00
  0.00000000E+00  0.00000000E+00  0.00000000E+00
  0.00000000E+00  0.00000000E+00  0.00000000E+00
  0.00000000E+00  0.00000000E+00  0.00000000E+00
  0.00000000E+00  0.00000000E+00  0.00000000E+00
  0.00000000E+00  0.00000000E+00  0.00000000E+00
  0.00000000E+00  0.00000000E+00  0.00000000E+00
  0.00000000E+00  0.00000000E+00  0.00000000E+00
  0.00000000E+00  0.00000000E+00  0.00000000E+00
  0.00000000E+00  0.00000000E+00  0.00000000E+00
  0.00000000E+00  0.00000000E+00  0.00000000E+00
