Co Te Pd
 1.0000000000000000
    10.5874116772654627    0.0000000000000000    0.0000000000000006
    -0.0000000000000008   12.7555817893690921    0.0000000000000008
     0.0000000000000000    0.0000000000000000   33.8815957568399924
Co Te Pd
16 32 32
Selective dynamics
Cartesian
  1.3234494116355546 -0.0012166550732218 19.7714741540840571   T   T   T
  3.9702876157157716  0.0002258503664052 19.7717449114116555   T   T   T
  3.9702793789745483  3.1888954473422730 14.1173315653499980   F   F   F
  1.3234264596581833  3.1888954473422730 14.1173315653499980   F   F   F
 -0.0000000000000001  1.8180837177240270 12.4915965466128434   F   F   F
  2.6460336361062171  1.4026041841561823 21.4573876405231303   T   T   T
  0.0008538186048096  4.9757551783027925 21.4577184859410508   T   T   T
  2.6468529193163652  4.5597071769605195 12.4915965466128434   F   F   F
  2.6468529193163652  5.0069791650662996 18.1385291727528433   F   F   F
 -0.0000000000000003  4.5597071769605195 15.7430665840871526   F   F   F
  2.6468529193163657  1.8180837177240270 15.7430665840871526   F   F   F
 -0.0000000000000001  1.3708117296182467 18.1385291727528433   F   F   F
  2.6461539366984601  4.0195336722718507 20.8749682471352749   T   T   T
  2.6468529193163657  0.8450899478350833 12.9213014094707770   F   F   F
  0.0006732601850670  2.3586749079126919 20.8750720118369095   T   T   T
 -0.0000000000000003  5.5327009468494630 12.9213014094707770   F   F   F
 -0.0000000000000001  0.8450899478350833 15.3133617212292190   F   F   F
 -0.0000000000000002  4.0339853951773561 18.5682340356107751   F   F   F
  2.6468529193163652  5.5327009468494630 15.3133617212292190   F   F   F
  2.6468529193163657  2.3438054995071895 18.5682340356107751   F   F   F
  1.3240047558634593  6.3793970997808689 19.7713252099457115   T   T   T
  3.9704184251661823  6.3778149961968271 19.7719814165476002   T   T   T
  3.9702793789745479  9.5666863420268200 14.1173315653499980   F   F   F
  1.3234264596581828  9.5666863420268200 14.1173315653499980   F   F   F
 -0.0000000000000005  8.1958746124085735 12.4915965466128434   F   F   F
  2.6455640754222207  7.7790402708529189 21.4585743586396447   T   T   T
  0.0010575515516386 11.3544791694986280 21.4583692219786926   T   T   T
  2.6468529193163648 10.9374980716450665 12.4915965466128434   F   F   F
  2.6468529193163648 11.3847700597508457 18.1385291727528433   F   F   F
 -0.0000000000000007 10.9374980716450665 15.7430665840871526   F   F   F
  2.6468529193163652  8.1958746124085735 15.7430665840871526   F   F   F
 -0.0000000000000005  7.7486026243027926 18.1385291727528433   F   F   F
  2.6459333116592405 10.3972253104526509 20.8746451578299634   T   T   T
  2.6468529193163652  7.2228808425196291 12.9213014094707770   F   F   F
  0.0006534596341220  8.7361308724348845 20.8748139651688867   T   T   T
 -0.0000000000000007 11.9104918415340091 12.9213014094707770   F   F   F
 -0.0000000000000004  7.2228808425196291 15.3133617212292190   F   F   F
 -0.0000000000000006 10.4117762898619013 18.5682340356107751   F   F   F
  2.6468529193163648 11.9104918415340091 15.3133617212292190   F   F   F
  2.6468529193163652  8.7215963941917352 18.5682340356107751   F   F   F
  6.6168688629913852 -0.0009711966522445 19.7727193880455836   T   T   T
  9.2632921044971059  0.0004655635475501 19.7720474028097435   T   T   T
  9.2639852176072797  3.1888954473422730 14.1173315653499980   F   F   F
  6.6171322982909144  3.1888954473422730 14.1173315653499980   F   F   F
  5.2937058386327314  1.8180837177240270 12.4915965466128434   F   F   F
  7.9419587564294343  1.4016306911789729 21.4574312233928239   T   T   T
  5.2925552612454245  4.9764320740274020 21.4573948113577089   T   T   T
  7.9405587579490966  4.5597071769605195 12.4915965466128434   F   F   F
  7.9405587579490966  5.0069791650662996 18.1385291727528433   F   F   F
  5.2937058386327314  4.5597071769605195 15.7430665840871526   F   F   F
  7.9405587579490966  1.8180837177240270 15.7430665840871526   F   F   F
  5.2937058386327314  1.3708117296182467 18.1385291727528433   F   F   F
  7.9407720000945883  4.0201482677840117 20.8746930799643629   T   T   T
  7.9405587579490966  0.8450899478350833 12.9213014094707770   F   F   F
  5.2937357183608489  2.3579698559055857 20.8747521956647866   T   T   T
  5.2937058386327314  5.5327009468494630 12.9213014094707770   F   F   F
  5.2937058386327314  0.8450899478350833 15.3133617212292190   F   F   F
  5.2937058386327314  4.0339853951773561 18.5682340356107751   F   F   F
  7.9405587579490966  5.5327009468494630 15.3133617212292190   F   F   F
  7.9405587579490966  2.3438054995071895 18.5682340356107751   F   F   F
  6.6176714059535477  6.3794638751365316 19.7726111755947151   T   T   T
  9.2634604352198782  6.3781056132543714 19.7720685965183058   T   T   T
  9.2639852176072797  9.5666863420268200 14.1173315653499980   F   F   F
  6.6171322982909144  9.5666863420268200 14.1173315653499980   F   F   F
  5.2937058386327314  8.1958746124085735 12.4915965466128434   F   F   F
  7.9416861778077728  7.7779275959078849 21.4587297850268541   T   T   T
  5.2925112162505590 11.3553060768427905 21.4581991276101789   T   T   T
  7.9405587579490966 10.9374980716450665 12.4915965466128434   F   F   F
  7.9405587579490966 11.3847700597508457 18.1385291727528433   F   F   F
  5.2937058386327314 10.9374980716450665 15.7430665840871526   F   F   F
  7.9405587579490966  8.1958746124085735 15.7430665840871526   F   F   F
  5.2937058386327314  7.7486026243027926 18.1385291727528433   F   F   F
  7.9405359030339095 10.3975702482217649 20.8743794934089415   T   T   T
  7.9405587579490966  7.2228808425196291 12.9213014094707770   F   F   F
  5.2936868030489128  8.7357240270858227 20.8744970919760995   T   T   T
  5.2937058386327314 11.9104918415340091 12.9213014094707770   F   F   F
  5.2937058386327314  7.2228808425196291 15.3133617212292190   F   F   F
  5.2937058386327314 10.4117762898619013 18.5682340356107751   F   F   F
  7.9405587579490966 11.9104918415340091 15.3133617212292190   F   F   F
  7.9405587579490966  8.7215963941917352 18.5682340356107751   F   F   F
