Na Zn Se                                
   1.00000000000000     
    12.5737654922200619    0.0000000000000000    0.0000000000000008
    -0.0000000000000008   13.6573092344788751    0.0000000000000008
     0.0000000000000000    0.0000000000000000   35.6163122855555727
   Na   Zn   Se
    32    16    32
Selective dynamics
Direct
  0.9999792417877629  0.3299752210243625  0.6257940082191311   T   T   T
  0.2500000000000000  0.4225510750000012  0.3701131300000000   F   F   F
  0.0000000000000000  0.0774489249999988  0.3701131300000000   F   F   F
  0.2500173411989763  0.1700249273619647  0.6257940366346659   T   T   T
  0.2500000000000000  0.0774489249999988  0.4632202033333357   F   F   F
  0.0000000000000000  0.1725510750000012  0.5367797966666643   F   F   F
  0.2500000000000000  0.3274489249999988  0.5367797966666643   F   F   F
  0.0000000000000000  0.4225510750000012  0.4632202033333357   F   F   F
  0.3749809649793079  0.0000171884458311  0.5841069523565992   T   T   T
  0.1250310415959248  0.9999927727898879  0.5840836590435146   T   T   T
  0.1250000000000000  0.2500000000000000  0.4166666666666643   F   F   F
  0.3750000000000000  0.2500000000000000  0.4166666666666643   F   F   F
  0.2500160015077739  0.3933356523566331  0.6226233379586077   T   T   T
  0.0000000000000000  0.3574659324999985  0.3789207416666684   F   F   F
  0.2500000000000000  0.1425340675000015  0.3789207416666684   F   F   F
  0.9999911306920879  0.1066670735622921  0.6226243884492817   T   T   T
  0.0000000000000000  0.1425340675000015  0.4544125916666673   F   F   F
  0.2500000000000000  0.1074659324999985  0.5455874083333327   F   F   F
  0.0000000000000000  0.3925340675000015  0.5455874083333327   F   F   F
  0.2500000000000000  0.3574659324999985  0.4544125916666673   F   F   F
  0.9999769821077464  0.8299772937105914  0.6257977255896421   T   T   T
  0.2500000000000000  0.9225510750000012  0.3701131300000000   F   F   F
  0.0000000000000000  0.5774489249999988  0.3701131300000000   F   F   F
  0.2500192612532715  0.6700236990235808  0.6257981156671093   T   T   T
  0.2500000000000000  0.5774489249999988  0.4632202033333357   F   F   F
  0.0000000000000000  0.6725510750000012  0.5367797966666643   F   F   F
  0.2500000000000000  0.8274489249999988  0.5367797966666643   F   F   F
  0.0000000000000000  0.9225510750000012  0.4632202033333357   F   F   F
  0.3750507819991853  0.5000228496152488  0.5841051929714780   T   T   T
  0.1249715925098513  0.5000094568539240  0.5840845284013838   T   T   T
  0.1250000000000000  0.7500000000000000  0.4166666666666643   F   F   F
  0.3750000000000000  0.7500000000000000  0.4166666666666643   F   F   F
  0.2500006024693064  0.8932428719041354  0.6226397268081030   T   T   T
  0.0000000000000000  0.8574659324999985  0.3789207416666684   F   F   F
  0.2500000000000000  0.6425340675000015  0.3789207416666684   F   F   F
  0.0000049418283723  0.6067605542916112  0.6226405046979053   T   T   T
  0.0000000000000000  0.6425340675000015  0.4544125916666673   F   F   F
  0.2500000000000000  0.6074659324999985  0.5455874083333327   F   F   F
  0.0000000000000000  0.8925340675000015  0.5455874083333327   F   F   F
  0.2500000000000000  0.8574659324999985  0.4544125916666673   F   F   F
  0.5000091990209583  0.3299886891887596  0.6258052137427939   T   T   T
  0.7500000000000000  0.4225510750000012  0.3701131300000000   F   F   F
  0.5000000000000000  0.0774489249999988  0.3701131300000000   F   F   F
  0.7500067777051669  0.1699945888368291  0.6258071336651838   T   T   T
  0.7500000000000000  0.0774489249999988  0.4632202033333357   F   F   F
  0.5000000000000000  0.1725510750000012  0.5367797966666643   F   F   F
  0.7500000000000000  0.3274489249999988  0.5367797966666643   F   F   F
  0.5000000000000000  0.4225510750000012  0.4632202033333357   F   F   F
  0.8749509287382935  0.9999711548832266  0.5841053905675864   T   T   T
  0.6250359044768174  0.9999844200125452  0.5840878700747183   T   T   T
  0.6250000000000000  0.2500000000000000  0.4166666666666643   F   F   F
  0.8750000000000000  0.2500000000000000  0.4166666666666643   F   F   F
  0.7499827547647229  0.3933167225048635  0.6226480007741273   T   T   T
  0.5000000000000000  0.3574659324999985  0.3789207416666684   F   F   F
  0.7500000000000000  0.1425340675000015  0.3789207416666684   F   F   F
  0.5000104846954301  0.1066893467285226  0.6226458524994740   T   T   T
  0.5000000000000000  0.1425340675000015  0.4544125916666673   F   F   F
  0.7500000000000000  0.1074659324999985  0.5455874083333327   F   F   F
  0.5000000000000000  0.3925340675000015  0.5455874083333327   F   F   F
  0.7500000000000000  0.3574659324999985  0.4544125916666673   F   F   F
  0.5000125549352319  0.8299812374215421  0.6258058987407367   T   T   T
  0.7500000000000000  0.9225510750000012  0.3701131300000000   F   F   F
  0.5000000000000000  0.5774489249999988  0.3701131300000000   F   F   F
  0.7500063209849941  0.6700032169884622  0.6258083156955863   T   T   T
  0.7500000000000000  0.5774489249999988  0.4632202033333357   F   F   F
  0.5000000000000000  0.6725510750000012  0.5367797966666643   F   F   F
  0.7500000000000000  0.8274489249999988  0.5367797966666643   F   F   F
  0.5000000000000000  0.9225510750000012  0.4632202033333357   F   F   F
  0.8750216039377960  0.4999775882970710  0.5841056342331612   T   T   T
  0.6249658593575802  0.5000139550876881  0.5840886642584664   T   T   T
  0.6250000000000000  0.7500000000000000  0.4166666666666643   F   F   F
  0.8750000000000000  0.7500000000000000  0.4166666666666643   F   F   F
  0.7499826330493278  0.8932267803776810  0.6226551237074816   T   T   T
  0.5000000000000000  0.8574659324999985  0.3789207416666684   F   F   F
  0.7500000000000000  0.6425340675000015  0.3789207416666684   F   F   F
  0.5000089926672899  0.6067796023652861  0.6226527017925392   T   T   T
  0.5000000000000000  0.6425340675000015  0.4544125916666673   F   F   F
  0.7500000000000000  0.6074659324999985  0.5455874083333327   F   F   F
  0.5000000000000000  0.8925340675000015  0.5455874083333327   F   F   F
  0.7500000000000000  0.8574659324999985  0.4544125916666673   F   F   F
 
  0.00000000E+00  0.00000000E+00  0.00000000E+00
  0.00000000E+00  0.00000000E+00  0.00000000E+00
  0.00000000E+00  0.00000000E+00  0.00000000E+00
  0.00000000E+00  0.00000000E+00  0.00000000E+00
  0.00000000E+00  0.00000000E+00  0.00000000E+00
  0.00000000E+00  0.00000000E+00  0.00000000E+00
  0.00000000E+00  0.00000000E+00  0.00000000E+00
  0.00000000E+00  0.00000000E+00  0.00000000E+00
  0.00000000E+00  0.00000000E+00  0.00000000E+00
  0.00000000E+00  0.00000000E+00  0.00000000E+00
  0.00000000E+00  0.00000000E+00  0.00000000E+00
  0.00000000E+00  0.00000000E+00  0.00000000E+00
  0.00000000E+00  0.00000000E+00  0.00000000E+00
  0.00000000E+00  0.00000000E+00  0.00000000E+00
  0.00000000E+00  0.00000000E+00  0.00000000E+00
  0.00000000E+00  0.00000000E+00  0.00000000E+00
  0.00000000E+00  0.00000000E+00  0.00000000E+00
  0.00000000E+00  0.00000000E+00  0.00000000E+00
  0.00000000E+00  0.00000000E+00  0.00000000E+00
  0.00000000E+00  0.00000000E+00  0.00000000E+00
  0.00000000E+00  0.00000000E+00  0.00000000E+00
  0.00000000E+00  0.00000000E+00  0.00000000E+00
  0.00000000E+00  0.00000000E+00  0.00000000E+00
  0.00000000E+00  0.00000000E+00  0.00000000E+00
  0.00000000E+00  0.00000000E+00  0.00000000E+00
  0.00000000E+00  0.00000000E+00  0.00000000E+00
  0.00000000E+00  0.00000000E+00  0.00000000E+00
  0.00000000E+00  0.00000000E+00  0.00000000E+00
  0.00000000E+00  0.00000000E+00  0.00000000E+00
  0.00000000E+00  0.00000000E+00  0.00000000E+00
  0.00000000E+00  0.00000000E+00  0.00000000E+00
  0.00000000E+00  0.00000000E+00  0.00000000E+00
  0.00000000E+00  0.00000000E+00  0.00000000E+00
  0.00000000E+00  0.00000000E+00  0.00000000E+00
  0.00000000E+00  0.00000000E+00  0.00000000E+00
  0.00000000E+00  0.00000000E+00  0.00000000E+00
  0.00000000E+00  0.00000000E+00  0.00000000E+00
  0.00000000E+00  0.00000000E+00  0.00000000E+00
  0.00000000E+00  0.00000000E+00  0.00000000E+00
  0.00000000E+00  0.00000000E+00  0.00000000E+00
  0.00000000E+00  0.00000000E+00  0.00000000E+00
  0.00000000E+00  0.00000000E+00  0.00000000E+00
  0.00000000E+00  0.00000000E+00  0.00000000E+00
  0.00000000E+00  0.00000000E+00  0.00000000E+00
  0.00000000E+00  0.00000000E+00  0.00000000E+00
  0.00000000E+00  0.00000000E+00  0.00000000E+00
  0.00000000E+00  0.00000000E+00  0.00000000E+00
  0.00000000E+00  0.00000000E+00  0.00000000E+00
  0.00000000E+00  0.00000000E+00  0.00000000E+00
  0.00000000E+00  0.00000000E+00  0.00000000E+00
  0.00000000E+00  0.00000000E+00  0.00000000E+00
  0.00000000E+00  0.00000000E+00  0.00000000E+00
  0.00000000E+00  0.00000000E+00  0.00000000E+00
  0.00000000E+00  0.00000000E+00  0.00000000E+00
  0.00000000E+00  0.00000000E+00  0.00000000E+00
  0.00000000E+00  0.00000000E+00  0.00000000E+00
  0.00000000E+00  0.00000000E+00  0.00000000E+00
  0.00000000E+00  0.00000000E+00  0.00000000E+00
  0.00000000E+00  0.00000000E+00  0.00000000E+00
  0.00000000E+00  0.00000000E+00  0.00000000E+00
  0.00000000E+00  0.00000000E+00  0.00000000E+00
  0.00000000E+00  0.00000000E+00  0.00000000E+00
  0.00000000E+00  0.00000000E+00  0.00000000E+00
  0.00000000E+00  0.00000000E+00  0.00000000E+00
  0.00000000E+00  0.00000000E+00  0.00000000E+00
  0.00000000E+00  0.00000000E+00  0.00000000E+00
  0.00000000E+00  0.00000000E+00  0.00000000E+00
  0.00000000E+00  0.00000000E+00  0.00000000E+00
  0.00000000E+00  0.00000000E+00  0.00000000E+00
  0.00000000E+00  0.00000000E+00  0.00000000E+00
  0.00000000E+00  0.00000000E+00  0.00000000E+00
  0.00000000E+00  0.00000000E+00  0.00000000E+00
  0.00000000E+00  0.00000000E+00  0.00000000E+00
  0.00000000E+00  0.00000000E+00  0.00000000E+00
  0.00000000E+00  0.00000000E+00  0.00000000E+00
  0.00000000E+00  0.00000000E+00  0.00000000E+00
  0.00000000E+00  0.00000000E+00  0.00000000E+00
  0.00000000E+00  0.00000000E+00  0.00000000E+00
  0.00000000E+00  0.00000000E+00  0.00000000E+00
  0.00000000E+00  0.00000000E+00  0.00000000E+00
