Cu Ge Se H O                            
   1.00000000000000     
    11.3870633164235322    0.0000000000000000    1.0799077969257329
     5.6391494895465444   11.9196569090682516    1.1133854447839220
     0.0000000000000000    0.0000000000000000   30.2876347857077874
   Cu   Ge   Se   H    O 
    16     8    32     1     1
Selective dynamics
Direct
  0.3958333333333357  0.4375000000000000  0.5416666666666643   F   F   F
  0.1703081081566111  0.2949671969350049  0.6134792028761495   T   T   T
  0.3125000000000000  0.1875000000000000  0.3750000000000000   F   F   F
  0.1041666666666643  0.0625000000000000  0.4583333333333357   F   F   F
  0.0508404077420934  0.1210018163692439  0.5863435191791666   T   T   T
  0.4583333333333357  0.3750000000000000  0.4166666666666643   F   F   F
  0.4890237048275452  0.4715051615329173  0.6048975774627792   T   T   T
  0.1550959057482828  0.1391644671491292  0.6484020561370372   T   T   T
  0.3445417136674180  0.2816972960448254  0.5614610039630108   T   T   T
  0.2003224791666653  0.0970231725000019  0.5198710083333324   F   F   F
  0.4023194500000002  0.2182213549999972  0.4390722199999999   F   F   F
  0.0572811558333299  0.4029768274999981  0.4801289916666676   F   F   F
  0.2567435816666688  0.0317786450000028  0.3942611133333358   F   F   F
  0.1169891458333367  0.3470231725000019  0.3532043416666681   F   F   F
  0.3958333333333357  0.9375000000000000  0.5416666666666643   F   F   F
  0.1736077082843295  0.8014372903058771  0.6155169739354136   T   T   T
  0.3125000000000000  0.6875000000000000  0.3750000000000000   F   F   F
  0.1041666666666643  0.5625000000000000  0.4583333333333357   F   F   F
  0.0462511640804237  0.6229612162143781  0.5840397743404395   T   T   T
  0.4583333333333357  0.8750000000000000  0.4166666666666643   F   F   F
  0.4872729931176494  0.9696817457960094  0.6055161328078640   T   T   T
  0.1555082841512032  0.6417452385963287  0.6511074668475700   T   T   T
  0.3491763379874371  0.7800413668725383  0.5646803395953768   T   T   T
  0.2003224791666653  0.5970231725000019  0.5198710083333324   F   F   F
  0.4023194500000002  0.7182213549999972  0.4390722199999999   F   F   F
  0.0572811558333299  0.9029768274999981  0.4801289916666676   F   F   F
  0.2567435816666688  0.5317786450000028  0.3942611133333358   F   F   F
  0.1169891458333367  0.8470231725000019  0.3532043416666681   F   F   F
  0.8958333333333357  0.4375000000000000  0.5416666666666643   F   F   F
  0.6704838111683245  0.2955418146682547  0.6128875991523302   T   T   T
  0.8125000000000000  0.1875000000000000  0.3750000000000000   F   F   F
  0.6041666666666643  0.0625000000000000  0.4583333333333357   F   F   F
  0.5465394910083319  0.1251401623546755  0.5854505319501584   T   T   T
  0.9583333333333357  0.3750000000000000  0.4166666666666643   F   F   F
  0.9878599371748962  0.4696670449893574  0.6062005980800720   T   T   T
  0.6426601307926774  0.1460257334798953  0.6488497756417573   T   T   T
  0.8495452163139063  0.2792579169173948  0.5626878844589882   T   T   T
  0.7003224791666653  0.0970231725000019  0.5198710083333324   F   F   F
  0.9023194500000002  0.2182213549999972  0.4390722199999999   F   F   F
  0.5572811558333299  0.4029768274999981  0.4801289916666676   F   F   F
  0.7567435816666688  0.0317786450000028  0.3942611133333358   F   F   F
  0.6169891458333367  0.3470231725000019  0.3532043416666681   F   F   F
  0.8958333333333357  0.9375000000000000  0.5416666666666643   F   F   F
  0.6702071493921693  0.7964826328745858  0.6151090599018616   T   T   T
  0.8125000000000000  0.6875000000000000  0.3750000000000000   F   F   F
  0.6041666666666643  0.5625000000000000  0.4583333333333357   F   F   F
  0.5527907151935523  0.6237579828013793  0.5861780558366476   T   T   T
  0.9583333333333357  0.8750000000000000  0.4166666666666643   F   F   F
  0.9849575066853262  0.9701005557607587  0.6067992726741096   T   T   T
  0.6577056816552798  0.6375278716876593  0.6487242172703063   T   T   T
  0.8456613182533843  0.7822465376727621  0.5636725579704347   T   T   T
  0.7003224791666653  0.5970231725000019  0.5198710083333324   F   F   F
  0.9023194500000002  0.7182213549999972  0.4390722199999999   F   F   F
  0.5572811558333370  0.9029768274999981  0.4801289916666676   F   F   F
  0.7567435816666688  0.5317786450000028  0.3942611133333358   F   F   F
  0.6169891458333367  0.8470231725000019  0.3532043416666681   F   F   F
  0.9769322865812882  0.7705715002593720  0.6916223028192832   T   T   T
  0.0162056038054672  0.6884096682263561  0.6933561801480081   T   T   T
 
  0.00000000E+00  0.00000000E+00  0.00000000E+00
  0.00000000E+00  0.00000000E+00  0.00000000E+00
  0.00000000E+00  0.00000000E+00  0.00000000E+00
  0.00000000E+00  0.00000000E+00  0.00000000E+00
  0.00000000E+00  0.00000000E+00  0.00000000E+00
  0.00000000E+00  0.00000000E+00  0.00000000E+00
  0.00000000E+00  0.00000000E+00  0.00000000E+00
  0.00000000E+00  0.00000000E+00  0.00000000E+00
  0.00000000E+00  0.00000000E+00  0.00000000E+00
  0.00000000E+00  0.00000000E+00  0.00000000E+00
  0.00000000E+00  0.00000000E+00  0.00000000E+00
  0.00000000E+00  0.00000000E+00  0.00000000E+00
  0.00000000E+00  0.00000000E+00  0.00000000E+00
  0.00000000E+00  0.00000000E+00  0.00000000E+00
  0.00000000E+00  0.00000000E+00  0.00000000E+00
  0.00000000E+00  0.00000000E+00  0.00000000E+00
  0.00000000E+00  0.00000000E+00  0.00000000E+00
  0.00000000E+00  0.00000000E+00  0.00000000E+00
  0.00000000E+00  0.00000000E+00  0.00000000E+00
  0.00000000E+00  0.00000000E+00  0.00000000E+00
  0.00000000E+00  0.00000000E+00  0.00000000E+00
  0.00000000E+00  0.00000000E+00  0.00000000E+00
  0.00000000E+00  0.00000000E+00  0.00000000E+00
  0.00000000E+00  0.00000000E+00  0.00000000E+00
  0.00000000E+00  0.00000000E+00  0.00000000E+00
  0.00000000E+00  0.00000000E+00  0.00000000E+00
  0.00000000E+00  0.00000000E+00  0.00000000E+00
  0.00000000E+00  0.00000000E+00  0.00000000E+00
  0.00000000E+00  0.00000000E+00  0.00000000E+00
  0.00000000E+00  0.00000000E+00  0.00000000E+00
  0.00000000E+00  0.00000000E+00  0.00000000E+00
  0.00000000E+00  0.00000000E+00  0.00000000E+00
  0.00000000E+00  0.00000000E+00  0.00000000E+00
  0.00000000E+00  0.00000000E+00  0.00000000E+00
  0.00000000E+00  0.00000000E+00  0.00000000E+00
  0.00000000E+00  0.00000000E+00  0.00000000E+00
  0.00000000E+00  0.00000000E+00  0.00000000E+00
  0.00000000E+00  0.00000000E+00  0.00000000E+00
  0.00000000E+00  0.00000000E+00  0.00000000E+00
  0.00000000E+00  0.00000000E+00  0.00000000E+00
  0.00000000E+00  0.00000000E+00  0.00000000E+00
  0.00000000E+00  0.00000000E+00  0.00000000E+00
  0.00000000E+00  0.00000000E+00  0.00000000E+00
  0.00000000E+00  0.00000000E+00  0.00000000E+00
  0.00000000E+00  0.00000000E+00  0.00000000E+00
  0.00000000E+00  0.00000000E+00  0.00000000E+00
  0.00000000E+00  0.00000000E+00  0.00000000E+00
  0.00000000E+00  0.00000000E+00  0.00000000E+00
  0.00000000E+00  0.00000000E+00  0.00000000E+00
  0.00000000E+00  0.00000000E+00  0.00000000E+00
  0.00000000E+00  0.00000000E+00  0.00000000E+00
  0.00000000E+00  0.00000000E+00  0.00000000E+00
  0.00000000E+00  0.00000000E+00  0.00000000E+00
  0.00000000E+00  0.00000000E+00  0.00000000E+00
  0.00000000E+00  0.00000000E+00  0.00000000E+00
  0.00000000E+00  0.00000000E+00  0.00000000E+00
  0.00000000E+00  0.00000000E+00  0.00000000E+00
  0.00000000E+00  0.00000000E+00  0.00000000E+00
