Cu Ge Se H O
 1.0000000000000000
    11.3870633164235322    0.0000000000000000    1.0799077969257329
     5.6391494895465444   11.9196569090682516    1.1133854447839220
     0.0000000000000000    0.0000000000000000   30.2876347857077874
Cu Ge Se H O
16 8 32 1 1
Selective dynamics
Cartesian
  6.9745071310942626  5.2148498977173601 17.3203718106344517   F   F   F
  3.6026733289086930  3.5159077868948652 19.0931632829741318   T   T   T
  4.6157978156723312  2.2349356704502972 11.9040940020766950   F   F   F
  1.5385992718907766  0.7449785568167631 14.0639095959281626   F   F   F
  1.2612702730048038  1.4423001364954278 17.9485829817226339   T   T   T
  7.3337517452740748  4.4698713409005943 13.5323251094298467   F   F   F
  8.2274319810802279  5.6201797563272127 19.3739844046680325   T   T   T
  2.5508561327607895  1.6587927023508795 19.9609976406242531   T   T   T
  5.5118514718777529  3.3577351210665252 17.6910367866554097   T   T   T
  2.8282129276513288  1.1564829284293461 16.0700172312974843   F   F   F
  5.8118198932350973  2.6011236818319836 13.9758914352178376   F   F   F
  2.9247107194078010  4.8033455261047813 15.0524984507551736   F   F   F
  3.1027599502539198  0.3787905454350738 12.2538778872969765   F   F   F
  3.2890783570026700  4.1363971556964074 11.2104321451316871   F   F   F
  9.7940818758675352 11.1746783522514868 17.8770645330264131   F   F   F
  6.4963066529847655  9.5528575345794025 19.7223422426760244   T   T   T
  7.4353725604456038  8.1947641249844239 12.4607867244686563   F   F   F
  4.3581740166640488  6.7048070113508889 14.6206023183201239   F   F   F
  4.0396363582647172  7.4254839649312760 18.4327263290558250   T   T   T
 10.1533264900473466 10.4296997954347201 14.0890178318218080   F   F   F
 11.0167887468420318 11.5582737208747819 19.9454909336797073   T   T   T
  5.3896800125075686  7.6493830670963732 20.6029495785805068   T   T   T
  8.3748629450843595  9.2978254680013279 18.3483968504340957   T   T   T
  5.6477876724246006  7.1163113829634721 16.6267099536894456   F   F   F
  8.6313946380083699  8.5609521363661099 14.5325841576097989   F   F   F
  5.7442854641810737 10.7631739806389071 15.6091911731471349   F   F   F
  5.9223346950271925  6.3386189999691993 12.8105706096889378   F   F   F
  6.1086531017759427 10.0962256102305332 11.7671248675236484   F   F   F
 12.6680387893060278  5.2148498977173601 17.8603257090973173   F   F   F
  9.3014460837368329  3.5227570331290616 19.6160284179848041   T   T   T
 10.3093294738840981  2.2349356704502972 12.4440479005395623   F   F   F
  7.2321309301025423  0.7449785568167631 14.6038634943910282   F   F   F
  6.9291638717018937  1.4916278008128163 18.4614533897960129   T   T   T
 13.0272834034858409  4.4698713409005943 14.0722790078927140   F   F   F
 13.8973463293772959  5.5982700377690495 19.9501004217384335   T   T   T
  8.1414725406910442  1.7405766429753979 20.5087216476627603   T   T   T
 11.2486023079677189  3.3286585587964050 18.2708373458112767   T   T   T
  8.5217445858630949  1.1564829284293461 16.6099711297603498   F   F   F
 11.5053515514468643  2.6011236818319836 14.5158453336807050   F   F   F
  8.6182423776195662  4.8033455261047813 15.5924523492180391   F   F   F
  8.7962916084656868  0.3787905454350738 12.7938317857598420   F   F   F
  8.9826100152144370  4.1363971556964074 11.7503860435945526   F   F   F
 15.4876135340793013 11.1746783522514868 18.4170184314892786   F   F   F
 12.1231758778557790  9.4937997178964224 20.2407526563374489   T   T   T
 13.1289042186573681  8.1947641249844239 13.0007406229315219   F   F   F
 10.0517056748758140  6.7048070113508889 15.1605562167829895   F   F   F
  9.8121273849550192  7.4349811492849529 19.0453929371011377   T   T   T
 15.8468581482591127 10.4296997954347201 14.6289717302846736   F   F   F
 16.6863155464395376 11.5632657919646551 20.5222738888574234   T   T   T
 11.0844512127793102  7.5991135004854229 21.0683979160101522   T   T   T
 14.0408041388183999  9.3241103473658669 18.8564867349520924   T   T   T
 11.3413193306363667  7.1163113829634721 17.1666638521523112   F   F   F
 14.3249262962201342  8.5609521363661099 15.0725380560726645   F   F   F
 11.4378171223928398 10.7631739806389071 16.1491450716100005   F   F   F
 11.6158663532389568  6.3386189999691993 13.3505245081518034   F   F   F
 11.8021847599877070 10.0962256102305332 12.3070787659865140   F   F   F
  4.0826943690827280  9.1849479069976834 21.7806358064165657   T   T   T
  4.0665792657913302  8.2056070581437037 21.7840846232915375   T   T   T
