Ge S O
 1.0000000000000000
    11.7976550077561910    0.0000000000000000    0.0000000000000007
    -0.0000000000000007   11.8000578300000001    0.0000000000000007
     0.0000000000000000    0.0000000000000000   33.9527842490291931
Ge S O
36 36 1
Selective dynamics
Cartesian
  1.9662758346260318  0.9833381525000000 18.5562522973327049   F   F   F
  0.5625921927203306  2.9434429022517712 20.9900410059071021   T   T   T
 -0.0000000000000001  0.9833381525000000 12.8974549224945054   F   F   F
  1.9662758346260316  2.9500144575000000 15.3965319516964882   F   F   F
  1.9518932645462712  1.0399482034749958 20.9635614100014891   T   T   T
 -0.0000000000000002  2.9500144575000000 18.6460540163929629   F   F   F
 -0.0000000000000001  0.9833381525000000 15.3067302326362320   F   F   F
  1.9662758346260316  2.9500144575000000 12.9872566415547617   F   F   F
  1.9662758346260316  4.9166907625000000 18.5562522973327049   F   F   F
  0.0374151987198270  6.9540963847990831 21.0397007497030302   T   T   T
 -0.0000000000000003  4.9166907625000000 12.8974549224945054   F   F   F
  1.9662758346260314  6.8833670675000000 15.3965319516964882   F   F   F
  1.9630300471347082  4.8362514510914458 20.9623409699096328   T   T   T
 -0.0000000000000004  6.8833670675000000 18.6460540163929629   F   F   F
 -0.0000000000000003  4.9166907625000000 15.3067302326362320   F   F   F
  1.9662758346260314  6.8833670675000000 12.9872566415547617   F   F   F
  1.9662758346260314  8.8500433725000001 18.5562522973327049   F   F   F
  0.0801088785083259 10.7358875930919702 21.0421653561164987   T   T   T
 -0.0000000000000005  8.8500433725000001 12.8974549224945054   F   F   F
  1.9662758346260312 10.8167196775000001 15.3965319516964882   F   F   F
  1.8869882277161021  8.8654607660297877 20.9604749175117604   T   T   T
 -0.0000000000000007 10.8167196775000001 18.6460540163929629   F   F   F
 -0.0000000000000005  8.8500433725000001 15.3067302326362320   F   F   F
  1.9662758346260312 10.8167196775000001 12.9872566415547617   F   F   F
  5.8988275038780955  0.9833381525000000 18.5562522973327049   F   F   F
  4.1640572496440313  2.9747935766759461 21.0387147389537006   T   T   T
  3.9325516692520637  0.9833381525000000 12.8974549224945054   F   F   F
  5.8988275038780955  2.9500144575000000 15.3965319516964882   F   F   F
  5.8965899258328989  0.9472227037236003 20.9643269002411898   T   T   T
  3.9325516692520637  2.9500144575000000 18.6460540163929629   F   F   F
  3.9325516692520637  0.9833381525000000 15.3067302326362320   F   F   F
  5.8988275038780955  2.9500144575000000 12.9872566415547617   F   F   F
  5.8988275038780955  4.9166907625000000 18.5562522973327049   F   F   F
  4.1379966420977894  6.9213255975397594 21.0416091931046196   T   T   T
  3.9325516692520632  4.9166907625000000 12.8974549224945054   F   F   F
  5.8988275038780946  6.8833670675000000 15.3965319516964882   F   F   F
  5.8701976015352955  4.9490158221375147 20.9651182172409563   T   T   T
  3.9325516692520632  6.8833670675000000 18.6460540163929629   F   F   F
  3.9325516692520632  4.9166907625000000 15.3067302326362320   F   F   F
  5.8988275038780946  6.8833670675000000 12.9872566415547617   F   F   F
  5.8988275038780955  8.8500433725000001 18.5562522973327049   F   F   F
  4.1405038766930033 10.7470635348650738 21.0381796238997651   T   T   T
  3.9325516692520632  8.8500433725000001 12.8974549224945054   F   F   F
  5.8988275038780946 10.8167196775000001 15.3965319516964882   F   F   F
  5.7977119130381141  8.8379928611845351 20.9651749062585395   T   T   T
  3.9325516692520632 10.8167196775000001 18.6460540163929629   F   F   F
  3.9325516692520632  8.8500433725000001 15.3067302326362320   F   F   F
  5.8988275038780946 10.8167196775000001 12.9872566415547617   F   F   F
  9.8313791731301592  0.9833381525000000 18.5562522973327049   F   F   F
  8.1236232497113861  2.9382208802422234 21.0545414819843302   T   T   T
  7.8651033385041274  0.9833381525000000 12.8974549224945054   F   F   F
  9.8313791731301592  2.9500144575000000 15.3965319516964882   F   F   F
  9.7314892781536457  0.9173977831865336 20.9284189423168527   T   T   T
  7.8651033385041274  2.9500144575000000 18.6460540163929629   F   F   F
  7.8651033385041274  0.9833381525000000 15.3067302326362320   F   F   F
  9.8313791731301592  2.9500144575000000 12.9872566415547617   F   F   F
  9.8313791731301592  4.9166907625000000 18.5562522973327049   F   F   F
  8.0655854611478617  6.7972803040562546 21.0415778150435528   T   T   T
  7.8651033385041274  4.9166907625000000 12.8974549224945054   F   F   F
  9.8313791731301592  6.8833670675000000 15.3965319516964882   F   F   F
  9.7473556930157486  4.9896309924766662 20.9349684264278721   T   T   T
  7.8651033385041274  6.8833670675000000 18.6460540163929629   F   F   F
  7.8651033385041274  4.9166907625000000 15.3067302326362320   F   F   F
  9.8313791731301592  6.8833670675000000 12.9872566415547617   F   F   F
  9.8313791731301592  8.8500433725000001 18.5562522973327049   F   F   F
  8.0128527117786916 10.9448684098431066 21.0401670263298968   T   T   T
  7.8651033385041265  8.8500433725000001 12.8974549224945072   F   F   F
  9.8313791731301574 10.8167196775000001 15.3965319516964900   F   F   F
  9.8779801360355179  8.8366338274678817 20.9659512879705971   T   T   T
  7.8651033385041265 10.8167196775000001 18.6460540163929629   F   F   F
  7.8651033385041265  8.8500433725000001 15.3067302326362338   F   F   F
  9.8313791731301574 10.8167196775000001 12.9872566415547634   F   F   F
 11.4602140435925541  2.9569463101889251 22.4365782817162689   T   T   T
