Te Au H O                               
   1.00000000000000     
     8.0812559169438369    0.0000000000000000   -2.6885252545588312
     2.6833086782632822   12.0561576738267870   -5.4241366942120299
     0.0000000000000000    0.0000000000000000   40.4691373736655891
   Te   Au   H    O 
    32    16     1     1
Selective dynamics
Direct
  0.4275467674999973  0.4057865658333313  0.3786267002777777   F   F   F
  0.1775467674999973  0.1557865658333313  0.4619600336111134   F   F   F
  0.0724532325000027  0.0942134341666687  0.3713732997222223   F   F   F
  0.3224532325000027  0.3442134341666687  0.4547066330555580   F   F   F
  0.0000000000000000  0.0000000000000000  0.4583333333333357   F   F   F
  0.2500000000000000  0.2500000000000000  0.3750000000000000   F   F   F
  0.4275467674999973  0.4057865658333313  0.5452933669444420   F   F   F
  0.2056918486931707  0.1308598909019025  0.6394212385993683   T   T   T
  0.0724532325000027  0.0942134341666687  0.5380399663888866   F   F   F
  0.3242025024140247  0.3444034765081412  0.6213714203963789   T   T   T
  0.0133744595282224  0.9864930236614811  0.6306378982868139   T   T   T
  0.2500000000000000  0.2500000000000000  0.5416666666666643   F   F   F
  0.4275467674999973  0.9057865658333313  0.3786267002777777   F   F   F
  0.1775467674999973  0.6557865658333313  0.4619600336111134   F   F   F
  0.0724532325000027  0.5942134341666687  0.3713732997222223   F   F   F
  0.3224532325000027  0.8442134341666687  0.4547066330555580   F   F   F
  0.0000000000000000  0.5000000000000000  0.4583333333333357   F   F   F
  0.2500000000000000  0.7500000000000000  0.3750000000000000   F   F   F
  0.4275467674999973  0.9057865658333313  0.5452933669444420   F   F   F
  0.2050250526247268  0.6311443749565626  0.6388580667106822   T   T   T
  0.0724532325000027  0.5942134341666687  0.5380399663888866   F   F   F
  0.3246531540956781  0.8371370770916471  0.6210229920451340   T   T   T
  0.0124426304172047  0.4887205010976459  0.6288794202448500   T   T   T
  0.2500000000000000  0.7500000000000000  0.5416666666666643   F   F   F
  0.9275467674999973  0.4057865658333313  0.3786267002777777   F   F   F
  0.6775467674999973  0.1557865658333313  0.4619600336111134   F   F   F
  0.5724532325000027  0.0942134341666687  0.3713732997222223   F   F   F
  0.8224532325000027  0.3442134341666687  0.4547066330555580   F   F   F
  0.5000000000000000  0.0000000000000000  0.4583333333333357   F   F   F
  0.7500000000000000  0.2500000000000000  0.3750000000000000   F   F   F
  0.9275467674999973  0.4057865658333313  0.5452933669444420   F   F   F
  0.7113793989148860  0.1275799022870103  0.6439992757400432   T   T   T
  0.5724532325000027  0.0942134341666687  0.5380399663888866   F   F   F
  0.8218226853754516  0.3447279939998040  0.6211858180705860   T   T   T
  0.5143691162888402  0.9850227289878930  0.6303592164108025   T   T   T
  0.7500000000000000  0.2500000000000000  0.5416666666666643   F   F   F
  0.9275467674999973  0.9057865658333313  0.3786267002777777   F   F   F
  0.6775467674999973  0.6557865658333313  0.4619600336111134   F   F   F
  0.5724532325000027  0.5942134341666687  0.3713732997222223   F   F   F
  0.8224532325000027  0.8442134341666687  0.4547066330555580   F   F   F
  0.5000000000000000  0.5000000000000000  0.4583333333333357   F   F   F
  0.7500000000000000  0.7500000000000000  0.3750000000000000   F   F   F
  0.9275467674999973  0.9057865658333313  0.5452933669444420   F   F   F
  0.7057066069132603  0.6313749277473661  0.6385761110965831   T   T   T
  0.5724532325000027  0.5942134341666687  0.5380399663888866   F   F   F
  0.8238984705124892  0.8385326833717457  0.6206861146652756   T   T   T
  0.5122214047733635  0.4894093917898914  0.6290195877694202   T   T   T
  0.7500000000000000  0.7500000000000000  0.5416666666666643   F   F   F
  0.2517940814763620  0.1685329355211422  0.7070479583554743   T   T   T
  0.2437566657542547  0.2176638680371994  0.6939436691779903   T   T   T
 
  0.00000000E+00  0.00000000E+00  0.00000000E+00
  0.00000000E+00  0.00000000E+00  0.00000000E+00
  0.00000000E+00  0.00000000E+00  0.00000000E+00
  0.00000000E+00  0.00000000E+00  0.00000000E+00
  0.00000000E+00  0.00000000E+00  0.00000000E+00
  0.00000000E+00  0.00000000E+00  0.00000000E+00
  0.00000000E+00  0.00000000E+00  0.00000000E+00
  0.00000000E+00  0.00000000E+00  0.00000000E+00
  0.00000000E+00  0.00000000E+00  0.00000000E+00
  0.00000000E+00  0.00000000E+00  0.00000000E+00
  0.00000000E+00  0.00000000E+00  0.00000000E+00
  0.00000000E+00  0.00000000E+00  0.00000000E+00
  0.00000000E+00  0.00000000E+00  0.00000000E+00
  0.00000000E+00  0.00000000E+00  0.00000000E+00
  0.00000000E+00  0.00000000E+00  0.00000000E+00
  0.00000000E+00  0.00000000E+00  0.00000000E+00
  0.00000000E+00  0.00000000E+00  0.00000000E+00
  0.00000000E+00  0.00000000E+00  0.00000000E+00
  0.00000000E+00  0.00000000E+00  0.00000000E+00
  0.00000000E+00  0.00000000E+00  0.00000000E+00
  0.00000000E+00  0.00000000E+00  0.00000000E+00
  0.00000000E+00  0.00000000E+00  0.00000000E+00
  0.00000000E+00  0.00000000E+00  0.00000000E+00
  0.00000000E+00  0.00000000E+00  0.00000000E+00
  0.00000000E+00  0.00000000E+00  0.00000000E+00
  0.00000000E+00  0.00000000E+00  0.00000000E+00
  0.00000000E+00  0.00000000E+00  0.00000000E+00
  0.00000000E+00  0.00000000E+00  0.00000000E+00
  0.00000000E+00  0.00000000E+00  0.00000000E+00
  0.00000000E+00  0.00000000E+00  0.00000000E+00
  0.00000000E+00  0.00000000E+00  0.00000000E+00
  0.00000000E+00  0.00000000E+00  0.00000000E+00
  0.00000000E+00  0.00000000E+00  0.00000000E+00
  0.00000000E+00  0.00000000E+00  0.00000000E+00
  0.00000000E+00  0.00000000E+00  0.00000000E+00
  0.00000000E+00  0.00000000E+00  0.00000000E+00
  0.00000000E+00  0.00000000E+00  0.00000000E+00
  0.00000000E+00  0.00000000E+00  0.00000000E+00
  0.00000000E+00  0.00000000E+00  0.00000000E+00
  0.00000000E+00  0.00000000E+00  0.00000000E+00
  0.00000000E+00  0.00000000E+00  0.00000000E+00
  0.00000000E+00  0.00000000E+00  0.00000000E+00
  0.00000000E+00  0.00000000E+00  0.00000000E+00
  0.00000000E+00  0.00000000E+00  0.00000000E+00
  0.00000000E+00  0.00000000E+00  0.00000000E+00
  0.00000000E+00  0.00000000E+00  0.00000000E+00
  0.00000000E+00  0.00000000E+00  0.00000000E+00
  0.00000000E+00  0.00000000E+00  0.00000000E+00
  0.00000000E+00  0.00000000E+00  0.00000000E+00
  0.00000000E+00  0.00000000E+00  0.00000000E+00
