Te Au H O
 1.0000000000000000
     8.0812559169438369    0.0000000000000000   -2.6885252545588312
     2.6833086782632822   12.0561576738267870   -5.4241366942120299
     0.0000000000000000    0.0000000000000000   40.4691373736655891
Te Au H O
32 16 1 1
Selective dynamics
Cartesian
  4.5439654582528242  4.8922268196073597 11.9721838631954878   F   F   F
  1.8528243094510446  1.8781874011506636 17.3727774648603344   F   F   F
  0.8383168393507353  1.1358520173060340 14.3233381926682792   F   F   F
  3.5294579881525152  4.1498914357627301 15.6676008199476957   F   F   F
  0.0000000000000000  0.0000000000000000 18.5483546295967301   F   F   F
  2.6911411488017793  3.0140394184566968 13.1477610279318817   F   F   F
  4.5439654582528242  4.8922268196073597 18.7170400921397473   F   F   F
  2.0133859502124878  1.5776674778931385 24.6140162786072310   T   T   T
  0.8383168393507353  1.1358520173060340 21.0681944216125387   F   F   F
  3.5441042282596555  4.1521826161962609 22.4066472222174369   T   T   T
  0.0718390433721652 -0.1628422364337894 25.5586778525867047   T   T   T
  2.6911411488017793  3.0140394184566968 19.8926172568761466   F   F   F
  5.8856197973844653 10.9203056565207532  9.2601155160894724   F   F   F
  3.1944786485826855  7.9062662380640569 14.6607091177543190   F   F   F
  2.1799711784823765  7.1639308542194273 11.6112698455622638   F   F   F
  4.8711123272841563 10.1779702726761236 12.9555324728416803   F   F   F
  1.3416543391316411  6.0280788369133935 15.8362862824907147   F   F   F
  4.0327954879334200  9.0421182553700898 10.4356926808258663   F   F   F
  5.8856197973844653 10.9203056565207532 16.0049717450337319   F   F   F
  3.3504150982033254  7.6091760994252065 21.8794064686427170   T   T   T
  2.1799711784823765  7.1639308542194273 18.3561260745065233   F   F   F
  4.8699024063461751 10.0926565960233923 19.7186806355826612   T   T   T
  1.4119400425218958  5.8920914196648502 22.7658685200328428   T   T   T
  4.0327954879334200  9.0421182553700898 17.1805489097701312   F   F   F
  8.5845934167247435  4.8922268196073597 10.6279212359160731   F   F   F
  5.8934522679229628  1.8781874011506636 16.0285148375809179   F   F   F
  4.8789447978226539  1.1358520173060340 12.9790755653888645   F   F   F
  7.5700859466244337  4.1498914357627301 14.3233381926682810   F   F   F
  4.0406279584719185  0.0000000000000000 17.2040920023173136   F   F   F
  6.7317691072736974  3.0140394184566968 11.8034984006524653   F   F   F
  8.5845934167247435  4.8922268196073597 17.3727774648603308   F   F   F
  6.0911752356515860  1.5381234179836076 23.4575228494704469   T   T   T
  4.8789447978226539  1.1358520173060340 19.7239317943331223   F   F   F
  7.5663710568089781  4.1560950502436400 21.0595113998937897   T   T   T
  4.1165598232188811 -0.1805683408456389 24.2084381296531994   T   T   T
  6.7317691072736974  3.0140394184566968 18.5483546295967301   F   F   F
  9.9262477558563837 10.9203056565207532  7.9158528888100577   F   F   F
  7.2351066070546040  7.9062662380640569 13.3164464904749043   F   F   F
  6.2205991369542950  7.1639308542194273 10.2670072182828491   F   F   F
  8.9117402857560748 10.1779702726761236 11.6112698455622656   F   F   F
  5.3822822976035596  6.0280788369133935 14.4920236552113000   F   F   F
  8.0734234464053394  9.0421182553700898  9.0914300535464516   F   F   F
  9.9262477558563837 10.9203056565207532 14.6607091177543172   F   F   F
  7.3971695156064925  7.6119556802232120 20.5206504151134723   T   T   T
  6.2205991369542950  7.1639308542194273 17.0118634472271069   F   F   F
  8.9081764160888426 10.1094822453868467 18.3552438979778785   T   T   T
  5.4526287263234181  5.9003967944706366 21.4241364850088516   T   T   T
  8.0734234464053394  9.0421182553700898 15.8362862824907165   F   F   F
  2.4870382992393374  2.0318596438758050 27.0225205297164024   T   T   T
  2.5539193434696439  2.6241899129515067 26.2473171520775779   T   T   T
