Te                                      
   1.00000000000000     
     9.5692778400372518    0.0000000000000000    0.0000000000000006
    -0.0000000000000006    9.0646730800000004    0.0000000000000006
     0.0000000000000000    0.0000000000000000   31.5831563680198002
   Te
    24
Selective dynamics
Direct
  0.2273642999999979  0.2391863100000009  0.3999999999999986   F   F   F
  0.2726357000000021  0.7391863100000009  0.3999999999999986   F   F   F
  0.0062658599999992  0.9908136900000031  0.3999999999999986   F   F   F
  0.4937341400000008  0.4908136900000031  0.3999999999999986   F   F   F
  0.2273642999999979  0.2391863100000009  0.5000000000000000   F   F   F
  0.2726357000000021  0.7391863100000009  0.5000000000000000   F   F   F
  0.0062658599999992  0.9908136900000031  0.5000000000000000   F   F   F
  0.4937341400000008  0.4908136900000031  0.5000000000000000   F   F   F
  0.2302200725419752  0.2401602669423113  0.5942934757400664   T   T   T
  0.2697800875198837  0.7401603932314842  0.5942934628243393   T   T   T
  0.0057351775745786  0.9899757105229128  0.5949929901575928   T   T   T
  0.4942650000033595  0.4899757241330178  0.5949930021886800   T   T   T
  0.7273642999999979  0.2391863100000009  0.3999999999999986   F   F   F
  0.7726357000000021  0.7391863100000009  0.3999999999999986   F   F   F
  0.5062658599999992  0.9908136900000031  0.3999999999999986   F   F   F
  0.9937341400000008  0.4908136900000031  0.3999999999999986   F   F   F
  0.7273642999999979  0.2391863100000009  0.5000000000000000   F   F   F
  0.7726357000000021  0.7391863100000009  0.5000000000000000   F   F   F
  0.5062658599999992  0.9908136900000031  0.5000000000000000   F   F   F
  0.9937341400000008  0.4908136900000031  0.5000000000000000   F   F   F
  0.7302124713920577  0.2402075230351244  0.5942964136099036   T   T   T
  0.7697874415939978  0.7402075951375267  0.5942963881175700   T   T   T
  0.5057728161540567  0.9899941107067676  0.5950101013079845   T   T   T
  0.9942272288097342  0.4899941815842936  0.5950100698295984   T   T   T
 
  0.00000000E+00  0.00000000E+00  0.00000000E+00
  0.00000000E+00  0.00000000E+00  0.00000000E+00
  0.00000000E+00  0.00000000E+00  0.00000000E+00
  0.00000000E+00  0.00000000E+00  0.00000000E+00
  0.00000000E+00  0.00000000E+00  0.00000000E+00
  0.00000000E+00  0.00000000E+00  0.00000000E+00
  0.00000000E+00  0.00000000E+00  0.00000000E+00
  0.00000000E+00  0.00000000E+00  0.00000000E+00
  0.00000000E+00  0.00000000E+00  0.00000000E+00
  0.00000000E+00  0.00000000E+00  0.00000000E+00
  0.00000000E+00  0.00000000E+00  0.00000000E+00
  0.00000000E+00  0.00000000E+00  0.00000000E+00
  0.00000000E+00  0.00000000E+00  0.00000000E+00
  0.00000000E+00  0.00000000E+00  0.00000000E+00
  0.00000000E+00  0.00000000E+00  0.00000000E+00
  0.00000000E+00  0.00000000E+00  0.00000000E+00
  0.00000000E+00  0.00000000E+00  0.00000000E+00
  0.00000000E+00  0.00000000E+00  0.00000000E+00
  0.00000000E+00  0.00000000E+00  0.00000000E+00
  0.00000000E+00  0.00000000E+00  0.00000000E+00
  0.00000000E+00  0.00000000E+00  0.00000000E+00
  0.00000000E+00  0.00000000E+00  0.00000000E+00
  0.00000000E+00  0.00000000E+00  0.00000000E+00
  0.00000000E+00  0.00000000E+00  0.00000000E+00
