Te
 1.0000000000000000
     9.5692778400372518    0.0000000000000000    0.0000000000000006
    -0.0000000000000006    9.0646730800000004    0.0000000000000006
     0.0000000000000000    0.0000000000000000   31.5831563680198002
Te
24
Selective dynamics
Cartesian
  2.1757121576055813  2.1681457053615349 12.6332625472079183   F   F   F
  2.6089267624130441  6.7004822453615356 12.6332625472079183   F   F   F
  0.0599597552467743  8.9814021830384654 12.6332625472079183   F   F   F
  4.7246791647718513  4.4490656430384652 12.6332625472079183   F   F   F
  2.1757121576055813  2.1681457053615349 15.7915781840099001   F   F   F
  2.6089267624130441  6.7004822453615356 15.7915781840099001   F   F   F
  0.0599597552467743  8.9814021830384654 15.7915781840099001   F   F   F
  4.7246791647718513  4.4490656430384652 15.7915781840099001   F   F   F
  2.2030398385076713  2.1769743066375713 18.7696637727924411   T   T   T
  2.5816006131873435  6.7093119914076391 18.7696633648731535   T   T   T
  0.0548815076730820  8.9738061730309191 18.7917566460230177   T   T   T
  4.7297591116381685  4.4414697564020562 18.7917570260026281   T   T   T
  6.9603510776242068  2.1681457053615349 12.6332625472079183   F   F   F
  7.3935656824316700  6.7004822453615356 12.6332625472079183   F   F   F
  4.8445986752654004  8.9814021830384654 12.6332625472079183   F   F   F
  9.5093180847904772  4.4490656430384652 12.6332625472079183   F   F   F
  6.9603510776242068  2.1681457053615349 15.7915781840099001   F   F   F
  7.3935656824316700  6.7004822453615356 15.7915781840099001   F   F   F
  4.8445986752654004  8.9814021830384654 15.7915781840099001   F   F   F
  9.5093180847904772  4.4490656430384652 15.7915781840099001   F   F   F
  6.9876060210108584  2.1774026676699623 18.7697565599948888   T   T   T
  7.3663099063844291  6.7097398612546835 18.7697557548665230   T   T   T
  4.8398806017162439  8.9739729646822006 18.7922970701613252   T   T   T
  9.5140365886106633  4.4416370671638097 18.7922960759744768   T   T   T
