Ag Te                                   
   1.00000000000000     
    10.3012648840885692    0.0000000000000000    0.0000000000000006
    -0.0000000000000010   15.5485699999999998    0.0000000000000010
     0.0000000000000000    0.0000000000000000   30.6628962163454162
   Ag   Te
    32    16
Selective dynamics
Direct
  0.0000088774335936  0.1726723886270349  0.5808138548984729   T   T   T
  0.0000000000000000  0.4290033999999991  0.4018553887500005   F   F   F
  0.0000000000000000  0.0709966000000009  0.4731446112499995   F   F   F
  0.0000000000000000  0.3209966000000009  0.5268553887500005   F   F   F
  0.2500000000000000  0.1790033999999991  0.4731446112499995   F   F   F
  0.2500000000000000  0.4290033999999991  0.5268553887500005   F   F   F
  0.2499954852220512  0.0773949485079086  0.5808271969043375   T   T   T
  0.2500000000000000  0.3209966000000009  0.4018553887500005   F   F   F
  0.9999934124101344  0.9937064714534571  0.5642122054095751   T   T   T
  0.2500065905406998  0.2561951793510531  0.5642227329678420   T   T   T
  0.2500000000000000  0.0000000000000000  0.4375000000000000   F   F   F
  0.0000000000000000  0.2500000000000000  0.4375000000000000   F   F   F
  0.0000036356961814  0.6726131639510697  0.5808269521107121   T   T   T
  0.0000000000000000  0.9290033999999991  0.4018553887500005   F   F   F
  0.0000000000000000  0.5709966000000009  0.4731446112499995   F   F   F
  0.0000000000000000  0.8209966000000009  0.5268553887500005   F   F   F
  0.2500000000000000  0.6790033999999991  0.4731446112499995   F   F   F
  0.2500000000000000  0.9290033999999991  0.5268553887500005   F   F   F
  0.2499935914514282  0.5773272055122050  0.5808167762465075   T   T   T
  0.2500000000000000  0.8209966000000009  0.4018553887500005   F   F   F
  0.9999956749969527  0.4937794352562008  0.5642179621938723   T   T   T
  0.2500045792134529  0.7563023954920425  0.5641978360833306   T   T   T
  0.2500000000000000  0.5000000000000000  0.4375000000000000   F   F   F
  0.0000000000000000  0.7500000000000000  0.4375000000000000   F   F   F
  0.4999905917841900  0.1726932538185295  0.5808644516096138   T   T   T
  0.5000000000000000  0.4290033999999991  0.4018553887500005   F   F   F
  0.5000000000000000  0.0709966000000009  0.4731446112499995   F   F   F
  0.5000000000000000  0.3209966000000009  0.5268553887500005   F   F   F
  0.7500000000000000  0.1790033999999991  0.4731446112499995   F   F   F
  0.7500000000000000  0.4290033999999991  0.5268553887500005   F   F   F
  0.7500120828100520  0.0773720718134356  0.5808769955444220   T   T   T
  0.7500000000000000  0.3209966000000009  0.4018553887500005   F   F   F
  0.5000009797900447  0.9937224213500073  0.5642211974045779   T   T   T
  0.7500031586907028  0.2561892696107719  0.5642282795599485   T   T   T
  0.7500000000000000  0.0000000000000000  0.4375000000000000   F   F   F
  0.5000000000000000  0.2500000000000000  0.4375000000000000   F   F   F
  0.4999895868981810  0.6726291008605969  0.5808777904604909   T   T   T
  0.5000000000000000  0.9290033999999991  0.4018553887500005   F   F   F
  0.5000000000000000  0.5709966000000009  0.4731446112499995   F   F   F
  0.5000000000000000  0.8209966000000009  0.5268553887500005   F   F   F
  0.7500000000000000  0.6790033999999991  0.4731446112499995   F   F   F
  0.7500000000000000  0.9290033999999991  0.5268553887500005   F   F   F
  0.7500124229009373  0.5773086082435910  0.5808682909942675   T   T   T
  0.7500000000000000  0.8209966000000009  0.4018553887500005   F   F   F
  0.5000000009815153  0.4937926498631313  0.5642229370911451   T   T   T
  0.7499992549316872  0.7562788106493556  0.5642071552671197   T   T   T
  0.7500000000000000  0.5000000000000000  0.4375000000000000   F   F   F
  0.5000000000000000  0.7500000000000000  0.4375000000000000   F   F   F
 
  0.00000000E+00  0.00000000E+00  0.00000000E+00
  0.00000000E+00  0.00000000E+00  0.00000000E+00
  0.00000000E+00  0.00000000E+00  0.00000000E+00
  0.00000000E+00  0.00000000E+00  0.00000000E+00
  0.00000000E+00  0.00000000E+00  0.00000000E+00
  0.00000000E+00  0.00000000E+00  0.00000000E+00
  0.00000000E+00  0.00000000E+00  0.00000000E+00
  0.00000000E+00  0.00000000E+00  0.00000000E+00
  0.00000000E+00  0.00000000E+00  0.00000000E+00
  0.00000000E+00  0.00000000E+00  0.00000000E+00
  0.00000000E+00  0.00000000E+00  0.00000000E+00
  0.00000000E+00  0.00000000E+00  0.00000000E+00
  0.00000000E+00  0.00000000E+00  0.00000000E+00
  0.00000000E+00  0.00000000E+00  0.00000000E+00
  0.00000000E+00  0.00000000E+00  0.00000000E+00
  0.00000000E+00  0.00000000E+00  0.00000000E+00
  0.00000000E+00  0.00000000E+00  0.00000000E+00
  0.00000000E+00  0.00000000E+00  0.00000000E+00
  0.00000000E+00  0.00000000E+00  0.00000000E+00
  0.00000000E+00  0.00000000E+00  0.00000000E+00
  0.00000000E+00  0.00000000E+00  0.00000000E+00
  0.00000000E+00  0.00000000E+00  0.00000000E+00
  0.00000000E+00  0.00000000E+00  0.00000000E+00
  0.00000000E+00  0.00000000E+00  0.00000000E+00
  0.00000000E+00  0.00000000E+00  0.00000000E+00
  0.00000000E+00  0.00000000E+00  0.00000000E+00
  0.00000000E+00  0.00000000E+00  0.00000000E+00
  0.00000000E+00  0.00000000E+00  0.00000000E+00
  0.00000000E+00  0.00000000E+00  0.00000000E+00
  0.00000000E+00  0.00000000E+00  0.00000000E+00
  0.00000000E+00  0.00000000E+00  0.00000000E+00
  0.00000000E+00  0.00000000E+00  0.00000000E+00
  0.00000000E+00  0.00000000E+00  0.00000000E+00
  0.00000000E+00  0.00000000E+00  0.00000000E+00
  0.00000000E+00  0.00000000E+00  0.00000000E+00
  0.00000000E+00  0.00000000E+00  0.00000000E+00
  0.00000000E+00  0.00000000E+00  0.00000000E+00
  0.00000000E+00  0.00000000E+00  0.00000000E+00
  0.00000000E+00  0.00000000E+00  0.00000000E+00
  0.00000000E+00  0.00000000E+00  0.00000000E+00
  0.00000000E+00  0.00000000E+00  0.00000000E+00
  0.00000000E+00  0.00000000E+00  0.00000000E+00
  0.00000000E+00  0.00000000E+00  0.00000000E+00
  0.00000000E+00  0.00000000E+00  0.00000000E+00
  0.00000000E+00  0.00000000E+00  0.00000000E+00
  0.00000000E+00  0.00000000E+00  0.00000000E+00
  0.00000000E+00  0.00000000E+00  0.00000000E+00
  0.00000000E+00  0.00000000E+00  0.00000000E+00
