H Pd O                                  
   1.00000000000000     
     8.8308406688682037    0.0000000000000000    0.0000000000000005
    -0.0000000000000005    8.8308406688682037    0.0000000000000005
     0.0000000000000000    0.0000000000000000   29.1402874958283853
   H    Pd   O 
    36    36     1
Selective dynamics
Direct
  0.0000000000000000  0.0000000000000000  0.5357142857142847   F   F   F
  0.1476437535598052  0.1625223249018859  0.6107488028998063   T   T   T
  0.3333333333333357  0.0000000000000000  0.3928571428571459   F   F   F
  0.1666666666666643  0.1666666666666643  0.4642857142857153   F   F   F
  0.9984028315299867  0.9984998124223381  0.6064604842147574   T   T   T
  0.1666666666666643  0.1666666666666643  0.5357142857142847   F   F   F
  0.0000000000000000  0.0000000000000000  0.4642857142857153   F   F   F
  0.1666666666666643  0.1666666666666643  0.3928571428571459   F   F   F
  0.0000000000000000  0.3333333333333357  0.5357142857142847   F   F   F
  0.1346673985417013  0.4904292146290956  0.6092578609312156   T   T   T
  0.3333333333333357  0.3333333333333357  0.3928571428571459   F   F   F
  0.1666666666666643  0.5000000000000000  0.4642857142857153   F   F   F
  0.9997613130605387  0.3320200373016249  0.6064763519279950   T   T   T
  0.1666666666666643  0.5000000000000000  0.5357142857142847   F   F   F
  0.0000000000000000  0.3333333333333357  0.4642857142857153   F   F   F
  0.1666666666666643  0.5000000000000000  0.3928571428571459   F   F   F
  0.0000000000000000  0.6666666666666643  0.5357142857142847   F   F   F
  0.1373781591962171  0.8438424528526483  0.6084589457737408   T   T   T
  0.3333333333333357  0.6666666666666643  0.3928571428571459   F   F   F
  0.1666666666666643  0.8333333333333357  0.4642857142857153   F   F   F
  0.0009116707478540  0.6650515557330365  0.6056152963699688   T   T   T
  0.1666666666666643  0.8333333333333357  0.5357142857142847   F   F   F
  0.0000000000000000  0.6666666666666643  0.4642857142857153   F   F   F
  0.1666666666666643  0.8333333333333357  0.3928571428571459   F   F   F
  0.3333333333333357  0.0000000000000000  0.5357142857142847   F   F   F
  0.5110159251917565  0.1532352553405758  0.6087060241584368   T   T   T
  0.6666666666666643  0.0000000000000000  0.3928571428571459   F   F   F
  0.5000000000000000  0.1666666666666643  0.4642857142857153   F   F   F
  0.3315338895340574  0.0027445838013094  0.6055126090481835   T   T   T
  0.5000000000000000  0.1666666666666643  0.5357142857142847   F   F   F
  0.3333333333333357  0.0000000000000000  0.4642857142857153   F   F   F
  0.5000000000000000  0.1666666666666643  0.3928571428571459   F   F   F
  0.3333333333333357  0.3333333333333357  0.5357142857142847   F   F   F
  0.5010636828480486  0.4354049133840121  0.6030543088026192   T   T   T
  0.6666666666666643  0.3333333333333357  0.3928571428571459   F   F   F
  0.5000000000000000  0.5000000000000000  0.4642857142857153   F   F   F
  0.3319747349230084  0.3318062459133273  0.6050093638473157   T   T   T
  0.5000000000000000  0.5000000000000000  0.5357142857142847   F   F   F
  0.3333333333333357  0.3333333333333357  0.4642857142857153   F   F   F
  0.5000000000000000  0.5000000000000000  0.3928571428571459   F   F   F
  0.3333333333333357  0.6666666666666643  0.5357142857142847   F   F   F
  0.4979082076471002  0.8957387511201844  0.6062123195587574   T   T   T
  0.6666666666666643  0.6666666666666643  0.3928571428571459   F   F   F
  0.5000000000000000  0.8333333333333357  0.4642857142857153   F   F   F
  0.3328609253812189  0.6669308778191194  0.6079919882346232   T   T   T
  0.5000000000000000  0.8333333333333357  0.5357142857142847   F   F   F
  0.3333333333333357  0.6666666666666643  0.4642857142857153   F   F   F
  0.5000000000000000  0.8333333333333357  0.3928571428571459   F   F   F
  0.6666666666666643  0.0000000000000000  0.5357142857142847   F   F   F
  0.8495044807345806  0.1663929316362243  0.6104132377137432   T   T   T
  0.0000000000000000  0.0000000000000000  0.3928571428571459   F   F   F
  0.8333333333333357  0.1666666666666643  0.4642857142857153   F   F   F
  0.6653320411081936  0.0026122330906730  0.6058056854013216   T   T   T
  0.8333333333333357  0.1666666666666643  0.5357142857142847   F   F   F
  0.6666666666666643  0.0000000000000000  0.4642857142857153   F   F   F
  0.8333333333333357  0.1666666666666643  0.3928571428571459   F   F   F
  0.6666666666666643  0.3333333333333357  0.5357142857142847   F   F   F
  0.8599442540878428  0.4917699204906754  0.6091894335438255   T   T   T
  0.0000000000000000  0.3333333333333357  0.3928571428571459   F   F   F
  0.8333333333333357  0.5000000000000000  0.4642857142857153   F   F   F
  0.6697451630470326  0.3323257620761524  0.6052026357156208   T   T   T
  0.8333333333333357  0.5000000000000000  0.5357142857142847   F   F   F
  0.6666666666666643  0.3333333333333357  0.4642857142857153   F   F   F
  0.8333333333333357  0.5000000000000000  0.3928571428571459   F   F   F
  0.6666666666666643  0.6666666666666643  0.5357142857142847   F   F   F
  0.8533514708942249  0.8323552381087751  0.6089343938221887   T   T   T
  0.0000000000000000  0.6666666666666643  0.3928571428571459   F   F   F
  0.8333333333333357  0.8333333333333357  0.4642857142857153   F   F   F
  0.6725708059852238  0.6689768485356780  0.6087204962224391   T   T   T
  0.8333333333333357  0.8333333333333357  0.5357142857142847   F   F   F
  0.6666666666666643  0.6666666666666643  0.4642857142857153   F   F   F
  0.8333333333333357  0.8333333333333357  0.3928571428571459   F   F   F
  0.5013381952479605  0.6606540839653121  0.6516662213546596   T   T   T
 
  0.00000000E+00  0.00000000E+00  0.00000000E+00
  0.00000000E+00  0.00000000E+00  0.00000000E+00
  0.00000000E+00  0.00000000E+00  0.00000000E+00
  0.00000000E+00  0.00000000E+00  0.00000000E+00
  0.00000000E+00  0.00000000E+00  0.00000000E+00
  0.00000000E+00  0.00000000E+00  0.00000000E+00
  0.00000000E+00  0.00000000E+00  0.00000000E+00
  0.00000000E+00  0.00000000E+00  0.00000000E+00
  0.00000000E+00  0.00000000E+00  0.00000000E+00
  0.00000000E+00  0.00000000E+00  0.00000000E+00
  0.00000000E+00  0.00000000E+00  0.00000000E+00
  0.00000000E+00  0.00000000E+00  0.00000000E+00
  0.00000000E+00  0.00000000E+00  0.00000000E+00
  0.00000000E+00  0.00000000E+00  0.00000000E+00
  0.00000000E+00  0.00000000E+00  0.00000000E+00
  0.00000000E+00  0.00000000E+00  0.00000000E+00
  0.00000000E+00  0.00000000E+00  0.00000000E+00
  0.00000000E+00  0.00000000E+00  0.00000000E+00
  0.00000000E+00  0.00000000E+00  0.00000000E+00
  0.00000000E+00  0.00000000E+00  0.00000000E+00
  0.00000000E+00  0.00000000E+00  0.00000000E+00
  0.00000000E+00  0.00000000E+00  0.00000000E+00
  0.00000000E+00  0.00000000E+00  0.00000000E+00
  0.00000000E+00  0.00000000E+00  0.00000000E+00
  0.00000000E+00  0.00000000E+00  0.00000000E+00
  0.00000000E+00  0.00000000E+00  0.00000000E+00
  0.00000000E+00  0.00000000E+00  0.00000000E+00
  0.00000000E+00  0.00000000E+00  0.00000000E+00
  0.00000000E+00  0.00000000E+00  0.00000000E+00
  0.00000000E+00  0.00000000E+00  0.00000000E+00
  0.00000000E+00  0.00000000E+00  0.00000000E+00
  0.00000000E+00  0.00000000E+00  0.00000000E+00
  0.00000000E+00  0.00000000E+00  0.00000000E+00
  0.00000000E+00  0.00000000E+00  0.00000000E+00
  0.00000000E+00  0.00000000E+00  0.00000000E+00
  0.00000000E+00  0.00000000E+00  0.00000000E+00
  0.00000000E+00  0.00000000E+00  0.00000000E+00
  0.00000000E+00  0.00000000E+00  0.00000000E+00
  0.00000000E+00  0.00000000E+00  0.00000000E+00
  0.00000000E+00  0.00000000E+00  0.00000000E+00
  0.00000000E+00  0.00000000E+00  0.00000000E+00
  0.00000000E+00  0.00000000E+00  0.00000000E+00
  0.00000000E+00  0.00000000E+00  0.00000000E+00
  0.00000000E+00  0.00000000E+00  0.00000000E+00
  0.00000000E+00  0.00000000E+00  0.00000000E+00
  0.00000000E+00  0.00000000E+00  0.00000000E+00
  0.00000000E+00  0.00000000E+00  0.00000000E+00
  0.00000000E+00  0.00000000E+00  0.00000000E+00
  0.00000000E+00  0.00000000E+00  0.00000000E+00
  0.00000000E+00  0.00000000E+00  0.00000000E+00
  0.00000000E+00  0.00000000E+00  0.00000000E+00
  0.00000000E+00  0.00000000E+00  0.00000000E+00
  0.00000000E+00  0.00000000E+00  0.00000000E+00
  0.00000000E+00  0.00000000E+00  0.00000000E+00
  0.00000000E+00  0.00000000E+00  0.00000000E+00
  0.00000000E+00  0.00000000E+00  0.00000000E+00
  0.00000000E+00  0.00000000E+00  0.00000000E+00
  0.00000000E+00  0.00000000E+00  0.00000000E+00
  0.00000000E+00  0.00000000E+00  0.00000000E+00
  0.00000000E+00  0.00000000E+00  0.00000000E+00
  0.00000000E+00  0.00000000E+00  0.00000000E+00
  0.00000000E+00  0.00000000E+00  0.00000000E+00
  0.00000000E+00  0.00000000E+00  0.00000000E+00
  0.00000000E+00  0.00000000E+00  0.00000000E+00
  0.00000000E+00  0.00000000E+00  0.00000000E+00
  0.00000000E+00  0.00000000E+00  0.00000000E+00
  0.00000000E+00  0.00000000E+00  0.00000000E+00
  0.00000000E+00  0.00000000E+00  0.00000000E+00
  0.00000000E+00  0.00000000E+00  0.00000000E+00
  0.00000000E+00  0.00000000E+00  0.00000000E+00
  0.00000000E+00  0.00000000E+00  0.00000000E+00
  0.00000000E+00  0.00000000E+00  0.00000000E+00
  0.00000000E+00  0.00000000E+00  0.00000000E+00
