H Pd O
 1.0000000000000000
     8.8308406688682037    0.0000000000000000    0.0000000000000005
    -0.0000000000000005    8.8308406688682037    0.0000000000000005
     0.0000000000000000    0.0000000000000000   29.1402874958283853
H Pd O
36 36 1
Selective dynamics
Cartesian
  0.0000000000000000  0.0000000000000000 15.6108683013366321   F   F   F
  1.3038184634402841  1.4352087563426084 17.7973957042334625   T   T   T
  2.9436135562894012  0.0000000000000000 11.4479700876468637   F   F   F
  1.4718067781447008  1.4718067781447004 13.5294191944917515   F   F   F
 -0.0141043402800278 -0.0132479174717446 17.6724328648773046   T   T   T
  1.4718067781447006  1.4718067781447006 15.6108683013366321   F   F   F
  0.0000000000000000  0.0000000000000000 13.5294191944917515   F   F   F
  1.4718067781447008  1.4718067781447004 11.4479700876468637   F   F   F
 -0.0000000000000002  2.9436135562894012 15.6108683013366321   F   F   F
  1.1892263398127667  4.3309022537477082 17.7539492266290146   T   T   T
  2.9436135562894012  2.9436135562894012 11.4479700876468637   F   F   F
  1.4718067781447006  4.4154203344341019 13.5294191944917515   F   F   F
 -0.0021078063321058  2.9320160482823301 17.6728952546030307   T   T   T
  1.4718067781447004  4.4154203344341019 15.6108683013366321   F   F   F
 -0.0000000000000002  2.9436135562894012 13.5294191944917515   F   F   F
  1.4718067781447006  4.4154203344341019 11.4479700876468637   F   F   F
 -0.0000000000000004  5.8872271125788025 15.6108683013366321   F   F   F
  1.2131646352442016  7.4518382507686960 17.7306686092554848   T   T   T
  2.9436135562894008  5.8872271125788025 11.4479700876468637   F   F   F
  1.4718067781447004  7.3590338907235031 13.5294191944917515   F   F   F
  0.0080508191167606  5.8729643252613819 17.6478038480921207   T   T   T
  1.4718067781447002  7.3590338907235031 15.6108683013366321   F   F   F
 -0.0000000000000004  5.8872271125788025 13.5294191944917515   F   F   F
  1.4718067781447004  7.3590338907235031 11.4479700876468637   F   F   F
  2.9436135562894012  0.0000000000000000 15.6108683013366321   F   F   F
  4.5127002146226820  1.3531961247659909 17.7378685444194382   T   T   T
  5.8872271125788025  0.0000000000000000 11.4479700876468637   F   F   F
  4.4154203344341019  1.4718067781447004 13.5294191944917515   F   F   F
  2.9277229548054127  0.0242369822517503 17.6448115100132092   T   T   T
  4.4154203344341019  1.4718067781447006 15.6108683013366321   F   F   F
  2.9436135562894012  0.0000000000000000 13.5294191944917515   F   F   F
  4.4154203344341019  1.4718067781447004 11.4479700876468637   F   F   F
  2.9436135562894012  2.9436135562894012 15.6108683013366321   F   F   F
  4.4248135481874575  3.8449914165365859 17.5731759341063700   T   T   T
  5.8872271125788025  2.9436135562894012 11.4479700876468637   F   F   F
  4.4154203344341019  4.4154203344341019 13.5294191944917515   F   F   F
  2.9316159901948229  2.9301280905958809 17.6301468001789310   T   T   T
  4.4154203344341019  4.4154203344341019 15.6108683013366321   F   F   F
  2.9436135562894012  2.9436135562894012 13.5294191944917515   F   F   F
  4.4154203344341019  4.4154203344341019 11.4479700876468637   F   F   F
  2.9436135562894008  5.8872271125788025 15.6108683013366321   F   F   F
  4.3969480494532842  7.9101261920733572 17.6652012754551144   T   T   T
  5.8872271125788025  5.8872271125788025 11.4479700876468637   F   F   F
  4.4154203344341019  7.3590338907235031 13.5294191944917515   F   F   F
  2.9394417969335875  5.8895603191690675 17.7170613323172113   T   T   T
  4.4154203344341010  7.3590338907235031 15.6108683013366321   F   F   F
  2.9436135562894008  5.8872271125788025 13.5294191944917515   F   F   F
  4.4154203344341019  7.3590338907235031 11.4479700876468637   F   F   F
  5.8872271125788025  0.0000000000000000 15.6108683013366321   F   F   F
  7.5018387168567182  1.4693894677053594 17.7876172382378392   T   T   T
  8.8308406688682037  0.0000000000000000 11.4479700876468637   F   F   F
  7.3590338907235031  1.4718067781447004 13.5294191944917515   F   F   F
  5.8754412469193262  0.0230682142137084 17.6533518392018998   T   T   T
  7.3590338907235031  1.4718067781447006 15.6108683013366321   F   F   F
  5.8872271125788025  0.0000000000000000 13.5294191944917515   F   F   F
  7.3590338907235031  1.4718067781447004 11.4479700876468637   F   F   F
  5.8872271125788025  2.9436135562894012 15.6108683013366321   F   F   F
  7.5940306919584595  4.3427418135951390 17.7519552328879620   T   T   T
  8.8308406688682037  2.9436135562894012 11.4479700876468637   F   F   F
  7.3590338907235031  4.4154203344341019 13.5294191944917515   F   F   F
  5.9144128236134925  2.9347158550547281 17.6357787979862444   T   T   T
  7.3590338907235031  4.4154203344341019 15.6108683013366321   F   F   F
  5.8872271125788025  2.9436135562894012 13.5294191944917515   F   F   F
  7.3590338907235031  4.4154203344341019 11.4479700876468637   F   F   F
  5.8872271125788025  5.8872271125788025 15.6108683013366321   F   F   F
  7.5358108740112124  7.3503964876364529 17.7445233020765265   T   T   T
  8.8308406688682037  5.8872271125788025 11.4479700876468637   F   F   F
  7.3590338907235031  7.3590338907235031 13.5294191944917515   F   F   F
  5.9393656261877545  5.9076279605801751 17.7382902645252436   T   T   T
  7.3590338907235031  7.3590338907235031 15.6108683013366321   F   F   F
  5.8872271125788025  5.8872271125788025 13.5294191944917515   F   F   F
  7.3590338907235031  7.3590338907235031 11.4479700876468637   F   F   F
  4.4272377234526896  5.8341309527347445 18.9897410415949963   T   T   T
