Ni S H O                                
   1.00000000000000     
     8.2184449857544060    0.0000000000000000    0.0911314190353902
     0.0901264975783482    8.2179507906963032    0.0911314190353902
     0.0000000000000000    0.0000000000000000   32.8758009288064983
   Ni   S    H    O 
    24    16     1     1
Selective dynamics
Direct
  0.2621863481793625  0.3656970966910720  0.5910371509646737   T   T   T
  0.2500000000000000  0.3719551749999965  0.4695112062499973   F   F   F
  0.1175898445544021  0.1283775589799347  0.5627965974434446   T   T   T
  0.1219551749999965  0.1280448250000035  0.4375000000000000   F   F   F
  0.3780448249999964  0.0000000000000000  0.5304887937500027   F   F   F
  0.3780448250000035  0.5000000000000000  0.4054887937500027   F   F   F
  0.3726868199999984  0.1226868199999984  0.4681717050000032   F   F   F
  0.3685713051807085  0.1221304408150985  0.5924616051849583   T   T   T
  0.1273131800000016  0.3773131800000016  0.5318282949999968   F   F   F
  0.1273131800000016  0.3773131800000016  0.4068282949999968   F   F   F
  0.2496840048894953  0.8765892635575909  0.5958013967115008   T   T   T
  0.2500000000000000  0.8719551749999965  0.4695112062499973   F   F   F
  0.1198264661151285  0.6253665028903512  0.5641590677535433   T   T   T
  0.1219551749999965  0.6280448250000035  0.4375000000000000   F   F   F
  0.3780448249999964  0.5000000000000000  0.5304887937500027   F   F   F
  0.3780448250000035  0.0000000000000000  0.4054887937500027   F   F   F
  0.3726868199999984  0.6226868199999984  0.4681717050000032   F   F   F
  0.3680049827143321  0.6121271115103042  0.5928985279544179   T   T   T
  0.1273131800000016  0.8773131800000016  0.5318282949999968   F   F   F
  0.1273131800000016  0.8773131800000016  0.4068282949999968   F   F   F
  0.7647415427181770  0.3619922881728854  0.5909970714648907   T   T   T
  0.7500000000000000  0.3719551749999965  0.4695112062499973   F   F   F
  0.6212778031955253  0.1233332872116151  0.5635452316880816   T   T   T
  0.6219551749999965  0.1280448250000035  0.4375000000000000   F   F   F
  0.8780448249999964  0.0000000000000000  0.5304887937500027   F   F   F
  0.8780448250000035  0.5000000000000000  0.4054887937500027   F   F   F
  0.8726868199999984  0.1226868199999984  0.4681717050000032   F   F   F
  0.8676403057649580  0.1118526351942464  0.5948145374856892   T   T   T
  0.6273131800000016  0.3773131800000016  0.5318282949999968   F   F   F
  0.6273131800000016  0.3773131800000016  0.4068282949999968   F   F   F
  0.7671301421251400  0.8613283284285487  0.5908124954804634   T   T   T
  0.7500000000000000  0.8719551749999965  0.4695112062499973   F   F   F
  0.6209265128736945  0.6233907627536155  0.5634808966731555   T   T   T
  0.6219551749999965  0.6280448250000035  0.4375000000000000   F   F   F
  0.8780448249999964  0.5000000000000000  0.5304887937500027   F   F   F
  0.8780448250000035  0.0000000000000000  0.4054887937500027   F   F   F
  0.8726868199999984  0.6226868199999984  0.4681717050000032   F   F   F
  0.8679428116682999  0.6111077976277741  0.5947087881218991   T   T   T
  0.6273131800000016  0.8773131800000016  0.5318282949999968   F   F   F
  0.6273131800000016  0.8773131800000016  0.4068282949999968   F   F   F
  0.1844648318722477  0.9590689074434664  0.6624129624917572   T   T   T
  0.2009851333171468  0.8520086781951974  0.6503166897561101   T   T   T
 
  0.00000000E+00  0.00000000E+00  0.00000000E+00
  0.00000000E+00  0.00000000E+00  0.00000000E+00
  0.00000000E+00  0.00000000E+00  0.00000000E+00
  0.00000000E+00  0.00000000E+00  0.00000000E+00
  0.00000000E+00  0.00000000E+00  0.00000000E+00
  0.00000000E+00  0.00000000E+00  0.00000000E+00
  0.00000000E+00  0.00000000E+00  0.00000000E+00
  0.00000000E+00  0.00000000E+00  0.00000000E+00
  0.00000000E+00  0.00000000E+00  0.00000000E+00
  0.00000000E+00  0.00000000E+00  0.00000000E+00
  0.00000000E+00  0.00000000E+00  0.00000000E+00
  0.00000000E+00  0.00000000E+00  0.00000000E+00
  0.00000000E+00  0.00000000E+00  0.00000000E+00
  0.00000000E+00  0.00000000E+00  0.00000000E+00
  0.00000000E+00  0.00000000E+00  0.00000000E+00
  0.00000000E+00  0.00000000E+00  0.00000000E+00
  0.00000000E+00  0.00000000E+00  0.00000000E+00
  0.00000000E+00  0.00000000E+00  0.00000000E+00
  0.00000000E+00  0.00000000E+00  0.00000000E+00
  0.00000000E+00  0.00000000E+00  0.00000000E+00
  0.00000000E+00  0.00000000E+00  0.00000000E+00
  0.00000000E+00  0.00000000E+00  0.00000000E+00
  0.00000000E+00  0.00000000E+00  0.00000000E+00
  0.00000000E+00  0.00000000E+00  0.00000000E+00
  0.00000000E+00  0.00000000E+00  0.00000000E+00
  0.00000000E+00  0.00000000E+00  0.00000000E+00
  0.00000000E+00  0.00000000E+00  0.00000000E+00
  0.00000000E+00  0.00000000E+00  0.00000000E+00
  0.00000000E+00  0.00000000E+00  0.00000000E+00
  0.00000000E+00  0.00000000E+00  0.00000000E+00
  0.00000000E+00  0.00000000E+00  0.00000000E+00
  0.00000000E+00  0.00000000E+00  0.00000000E+00
  0.00000000E+00  0.00000000E+00  0.00000000E+00
  0.00000000E+00  0.00000000E+00  0.00000000E+00
  0.00000000E+00  0.00000000E+00  0.00000000E+00
  0.00000000E+00  0.00000000E+00  0.00000000E+00
  0.00000000E+00  0.00000000E+00  0.00000000E+00
  0.00000000E+00  0.00000000E+00  0.00000000E+00
  0.00000000E+00  0.00000000E+00  0.00000000E+00
  0.00000000E+00  0.00000000E+00  0.00000000E+00
  0.00000000E+00  0.00000000E+00  0.00000000E+00
  0.00000000E+00  0.00000000E+00  0.00000000E+00
