Ni S H O
 1.0000000000000000
     8.2184449857544060    0.0000000000000000    0.0911314190353902
     0.0901264975783482    8.2179507906963032    0.0911314190353902
     0.0000000000000000    0.0000000000000000   32.8758009288064983
Ni S H O
24 16 1 1
Selective dynamics
Cartesian
  2.1877230770273015  3.0052807449077492 19.4880396259633528   T   T   T
  2.0881342636174911  3.0567093244948307 15.4922366081929628   F   F   F
  0.9779758881122571  1.0550004623268143 18.5248042594809270   T   T   T
  1.0138221280758326  1.0522660708533191 14.4059457611116919   F   F   F
  3.1069405964116501  0.0000000000000000 17.4746957396489258   F   F   F
  3.1520038452008254  4.1089753953481498 13.4107863330658077   F   F   F
  3.0739634604713775  1.0082342494270140 15.4366638768458504   F   F   F
  3.0400901838337013  1.0036619526645243 19.5223681364575263   T   T   T
  1.0803222811949953  3.1007411459211358 17.5302684709960417   F   F   F
  1.0803222811949953  3.1007411459211340 13.4207933548952258   F   F   F
  2.1310181781463755  7.2037674315690019 19.6900869925673092   T   T   T
  2.1331975124066651  7.1656847198429823 15.5378023177106570   F   F   F
  1.0411493122128803  5.1392311469027554 18.6150916963672195   T   T   T
  1.0588853768650068  5.1612414662014707 14.4515114706293861   F   F   F
  3.1520038452008241  4.1089753953481516 17.5202614491666218   F   F   F
  3.1970670939899994  8.2179507906963014 13.4563520425835019   F   F   F
  3.1190267092605515  5.1172096447751656 15.4822295863635446   F   F   F
  3.0795975775544244  5.0304304800427317 19.5813348046006475   T   T   T
  1.1253855299841695  7.2097165412692874 17.5758341805137377   F   F   F
  1.1253855299841695  7.2097165412692856 13.4663590644129201   F   F   F
  6.3176113942336762  2.9748348108163456 19.5321829238716660   T   T   T
  6.1973567564946936  3.0567093244948307 15.5378023177106570   F   F   F
  5.1170530436440034  1.0135468851598382 18.5948583166539017   T   T   T
  5.1230446209530358  1.0522660708533191 14.4515114706293861   F   F   F
  7.2161630892888535  0.0000000000000000 17.5202614491666218   F   F   F
  7.2612263380780284  4.1089753953481498 13.4563520425835019   F   F   F
  7.1831859533485805  1.0082342494270140 15.4822295863635446   F   F   F
  7.1407350066074269  0.9191994518360023 19.6442669055843915   T   T   T
  5.1895447740721981  3.1007411459211358 17.5758341805137377   F   F   F
  5.1895447740721981  3.1007411459211340 13.4663590644129201   F   F   F
  6.3822453754756978  7.0783538176585061 19.5718377189289576   T   T   T
  6.2424200052838685  7.1656847198429823 15.5833680272283530   F   F   F
  5.1592344123184493  5.1229946116838327 18.6382821852701355   T   T   T
  5.1681078697422098  5.1612414662014707 14.4970771801470821   F   F   F
  7.2612263380780266  4.1089753953481516 17.5658271586843142   F   F   F
  7.3062895868672024  8.2179507906963014 13.5019177521011979   F   F   F
  7.2282492021377545  5.1172096447751656 15.5277952958812406   F   F   F
  7.1882172539199543  5.0220538087158175 19.6863157097576433   T   T   T
  5.2346080228613721  7.2097165412692874 17.6213998900314301   F   F   F
  5.2346080228613721  7.2097165412692856 13.5119247739306161   F   F   F
  1.6024515941126927  7.8815810862572455 21.8815685399187210   T   T   T
  1.7285738191935840  7.0017653906543558 21.4756428533809647   T   T   T
