S Tl H O                                
   1.00000000000000     
    14.8947738067976587    0.0000000000000000   -0.0000000000000009
     7.4473869033988347   12.8992525003098208   -0.0000000000000007
     0.0000000000000000    0.0000000000000072   58.6178809361686746
   S    Tl   H    O 
    36    72     1     1
Selective dynamics
Direct
  0.0085902009572791  0.4852297089633311  0.6127362569434922   T   T   T
  0.0078566808333349  0.4928600866666670  0.3937565312962974   F   F   F
  0.3411900141666635  0.3261934200000027  0.6029102268518542   F   F   F
  0.1756617781674805  0.1579585189881101  0.6130626389446405   T   T   T
  0.0078566808333349  0.4928600866666670  0.5048676424074046   F   F   F
  0.3411900141666635  0.3261934200000027  0.4917991157407400   F   F   F
  0.1745233474999992  0.1595267533333313  0.5031386090740710   F   F   F
  0.3411900141666635  0.3261934200000027  0.3806880046296328   F   F   F
  0.1745233474999992  0.1595267533333313  0.3920274979629639   F   F   F
  0.1576562741666692  0.0071399133333330  0.5822516861111140   F   F   F
  0.0221365075000008  0.3287806666666668  0.3600294638888855   F   F   F
  0.3372801324442278  0.4809952215363467  0.6382724164774345   T   T   T
  0.1576562741666692  0.0071399133333330  0.3600294638888855   F   F   F
  0.0221365075000008  0.3287806666666668  0.5822516861111140   F   F   F
  0.4945475157074881  0.1761537735128798  0.6383755800563975   T   T   T
  0.4921433191666651  0.1771893983333328  0.4177483138888860   F   F   F
  0.3392407308333318  0.4771467249999972  0.4177483138888860   F   F   F
  0.1885351652770808  0.3256795513401016  0.6381965796459994   T   T   T
  0.3437772608333347  0.1426596800000013  0.5822516861111140   F   F   F
  0.3437772608333347  0.1426596800000013  0.3600294638888855   F   F   F
  0.1921859925000007  0.3242441366666640  0.4177483138888860   F   F   F
  0.1576562741666692  0.0071399133333330  0.4711405749999997   F   F   F
  0.3392407308333318  0.4771467249999972  0.5288594250000003   F   F   F
  0.0221365075000008  0.3287806666666668  0.4711405749999997   F   F   F
  0.4921433191666651  0.1771893983333328  0.5288594250000003   F   F   F
  0.1921859925000007  0.3242441366666640  0.5288594250000003   F   F   F
  0.3437772608333347  0.1426596800000013  0.4711405749999997   F   F   F
  0.0060001245984864  0.9959895298152404  0.6137830890094520   T   T   T
  0.0078566808333349  0.9928600866666670  0.3937565312962974   F   F   F
  0.3411900141666635  0.8261934200000027  0.6029102268518542   F   F   F
  0.1753509113358973  0.6592064375731894  0.6127035245672730   T   T   T
  0.0078566808333349  0.9928600866666670  0.5048676424074046   F   F   F
  0.3411900141666635  0.8261934200000027  0.4917991157407400   F   F   F
  0.1745233474999992  0.6595267533333313  0.5031386090740710   F   F   F
  0.3411900141666635  0.8261934200000027  0.3806880046296328   F   F   F
  0.1745233474999992  0.6595267533333313  0.3920274979629639   F   F   F
  0.1576562741666692  0.5071399133333330  0.5822516861111140   F   F   F
  0.0221365075000008  0.8287806666666668  0.3600294638888855   F   F   F
  0.3384864011121351  0.9739824083987969  0.6382973937067575   T   T   T
  0.1576562741666692  0.5071399133333330  0.3600294638888855   F   F   F
  0.0221365075000008  0.8287806666666668  0.5822516861111140   F   F   F
  0.4876936514154906  0.6806097291531472  0.6383220366556728   T   T   T
  0.4921433191666651  0.6771893983333328  0.4177483138888860   F   F   F
  0.3392407308333318  0.9771467249999972  0.4177483138888860   F   F   F
  0.1684576573394523  0.8277503387631171  0.6446376907094589   T   T   T
  0.3437772608333347  0.6426596800000013  0.5822516861111140   F   F   F
  0.3437772608333347  0.6426596800000013  0.3600294638888855   F   F   F
  0.1921859925000007  0.8242441366666640  0.4177483138888860   F   F   F
  0.1576562741666692  0.5071399133333330  0.4711405749999997   F   F   F
  0.3392407308333318  0.9771467249999972  0.5288594250000003   F   F   F
  0.0221365075000008  0.8287806666666668  0.4711405749999997   F   F   F
  0.4921433191666651  0.6771893983333328  0.5288594250000003   F   F   F
  0.1921859925000007  0.8242441366666640  0.5288594250000003   F   F   F
  0.3437772608333347  0.6426596800000013  0.4711405749999997   F   F   F
  0.5074103031612154  0.4943937080883316  0.6145952008079192   T   T   T
  0.5078566808333349  0.4928600866666670  0.3937565312962974   F   F   F
  0.8411900141666706  0.3261934200000027  0.6029102268518542   F   F   F
  0.6675056499237826  0.1677070266548597  0.6112170216688213   T   T   T
  0.5078566808333349  0.4928600866666670  0.5048676424074046   F   F   F
  0.8411900141666635  0.3261934200000027  0.4917991157407400   F   F   F
  0.6745233474999992  0.1595267533333313  0.5031386090740710   F   F   F
  0.8411900141666635  0.3261934200000027  0.3806880046296328   F   F   F
  0.6745233474999992  0.1595267533333313  0.3920274979629639   F   F   F
  0.6576562741666692  0.0071399133333330  0.5822516861111140   F   F   F
  0.5221365075000008  0.3287806666666668  0.3600294638888855   F   F   F
  0.8410001712421575  0.4785706821910622  0.6383573393299002   T   T   T
  0.6576562741666692  0.0071399133333330  0.3600294638888855   F   F   F
  0.5221365075000008  0.3287806666666668  0.5822516861111140   F   F   F
  0.9940492576845301  0.1744716765846874  0.6383379426867535   T   T   T
  0.9921433191666651  0.1771893983333328  0.4177483138888860   F   F   F
  0.8392407308333318  0.4771467249999972  0.4177483138888860   F   F   F
  0.6900488699373213  0.3238767305155150  0.6381635530058674   T   T   T
  0.8437772608333347  0.1426596800000013  0.5822516861111140   F   F   F
  0.8437772608333347  0.1426596800000013  0.3600294638888855   F   F   F
  0.6921859925000007  0.3242441366666640  0.4177483138888860   F   F   F
  0.6576562741666692  0.0071399133333330  0.4711405749999997   F   F   F
  0.8392407308333318  0.4771467249999972  0.5288594250000003   F   F   F
  0.5221365075000008  0.3287806666666668  0.4711405749999997   F   F   F
  0.9921433191666651  0.1771893983333328  0.5288594250000003   F   F   F
  0.6921859925000007  0.3242441366666640  0.5288594250000003   F   F   F
  0.8437772608333347  0.1426596800000013  0.4711405749999997   F   F   F
  0.5079128502441961  0.9936182092619390  0.6143943355771739   T   T   T
  0.5078566808333349  0.9928600866666670  0.3937565312962974   F   F   F
  0.8411900141666635  0.8261934200000027  0.6029102268518542   F   F   F
  0.6751338805799918  0.6588877000752191  0.6128353310702082   T   T   T
  0.5078566808333349  0.9928600866666670  0.5048676424074046   F   F   F
  0.8411900141666635  0.8261934200000027  0.4917991157407400   F   F   F
  0.6745233474999992  0.6595267533333313  0.5031386090740710   F   F   F
  0.8411900141666635  0.8261934200000027  0.3806880046296328   F   F   F
  0.6745233474999992  0.6595267533333313  0.3920274979629639   F   F   F
  0.6576562741666692  0.5071399133333330  0.5822516861111140   F   F   F
  0.5221365075000008  0.8287806666666668  0.3600294638888855   F   F   F
  0.8452176829146509  0.9789212860225405  0.6416906923985124   T   T   T
  0.6576562741666692  0.5071399133333330  0.3600294638888855   F   F   F
  0.5221365075000008  0.8287806666666668  0.5822516861111140   F   F   F
  0.9987373214119444  0.6788672090006216  0.6420701495169823   T   T   T
  0.9921433191666651  0.6771893983333328  0.4177483138888860   F   F   F
  0.8392407308333318  0.9771467249999972  0.4177483138888860   F   F   F
  0.6941181181851164  0.8239109985448820  0.6380619569981576   T   T   T
  0.8437772608333347  0.6426596800000013  0.5822516861111140   F   F   F
  0.8437772608333347  0.6426596800000013  0.3600294638888855   F   F   F
  0.6921859925000007  0.8242441366666640  0.4177483138888860   F   F   F
  0.6576562741666692  0.5071399133333330  0.4711405749999997   F   F   F
  0.8392407308333318  0.9771467249999972  0.5288594250000003   F   F   F
  0.5221365075000008  0.8287806666666668  0.4711405749999997   F   F   F
  0.9921433191666651  0.6771893983333328  0.5288594250000003   F   F   F
  0.6921859925000007  0.8242441366666640  0.5288594250000003   F   F   F
  0.8437772608333347  0.6426596800000013  0.4711405749999997   F   F   F
  0.0048818726832422  0.8360431619985107  0.6771378721485917   T   T   T
  0.0090996110613801  0.8328086504335275  0.6605208683021218   T   T   T
 
  0.00000000E+00  0.00000000E+00  0.00000000E+00
  0.00000000E+00  0.00000000E+00  0.00000000E+00
  0.00000000E+00  0.00000000E+00  0.00000000E+00
  0.00000000E+00  0.00000000E+00  0.00000000E+00
  0.00000000E+00  0.00000000E+00  0.00000000E+00
  0.00000000E+00  0.00000000E+00  0.00000000E+00
  0.00000000E+00  0.00000000E+00  0.00000000E+00
  0.00000000E+00  0.00000000E+00  0.00000000E+00
  0.00000000E+00  0.00000000E+00  0.00000000E+00
  0.00000000E+00  0.00000000E+00  0.00000000E+00
  0.00000000E+00  0.00000000E+00  0.00000000E+00
  0.00000000E+00  0.00000000E+00  0.00000000E+00
  0.00000000E+00  0.00000000E+00  0.00000000E+00
  0.00000000E+00  0.00000000E+00  0.00000000E+00
  0.00000000E+00  0.00000000E+00  0.00000000E+00
  0.00000000E+00  0.00000000E+00  0.00000000E+00
  0.00000000E+00  0.00000000E+00  0.00000000E+00
  0.00000000E+00  0.00000000E+00  0.00000000E+00
  0.00000000E+00  0.00000000E+00  0.00000000E+00
  0.00000000E+00  0.00000000E+00  0.00000000E+00
  0.00000000E+00  0.00000000E+00  0.00000000E+00
  0.00000000E+00  0.00000000E+00  0.00000000E+00
  0.00000000E+00  0.00000000E+00  0.00000000E+00
  0.00000000E+00  0.00000000E+00  0.00000000E+00
  0.00000000E+00  0.00000000E+00  0.00000000E+00
  0.00000000E+00  0.00000000E+00  0.00000000E+00
  0.00000000E+00  0.00000000E+00  0.00000000E+00
  0.00000000E+00  0.00000000E+00  0.00000000E+00
  0.00000000E+00  0.00000000E+00  0.00000000E+00
  0.00000000E+00  0.00000000E+00  0.00000000E+00
  0.00000000E+00  0.00000000E+00  0.00000000E+00
  0.00000000E+00  0.00000000E+00  0.00000000E+00
  0.00000000E+00  0.00000000E+00  0.00000000E+00
  0.00000000E+00  0.00000000E+00  0.00000000E+00
  0.00000000E+00  0.00000000E+00  0.00000000E+00
  0.00000000E+00  0.00000000E+00  0.00000000E+00
  0.00000000E+00  0.00000000E+00  0.00000000E+00
  0.00000000E+00  0.00000000E+00  0.00000000E+00
  0.00000000E+00  0.00000000E+00  0.00000000E+00
  0.00000000E+00  0.00000000E+00  0.00000000E+00
  0.00000000E+00  0.00000000E+00  0.00000000E+00
  0.00000000E+00  0.00000000E+00  0.00000000E+00
  0.00000000E+00  0.00000000E+00  0.00000000E+00
  0.00000000E+00  0.00000000E+00  0.00000000E+00
  0.00000000E+00  0.00000000E+00  0.00000000E+00
  0.00000000E+00  0.00000000E+00  0.00000000E+00
  0.00000000E+00  0.00000000E+00  0.00000000E+00
  0.00000000E+00  0.00000000E+00  0.00000000E+00
  0.00000000E+00  0.00000000E+00  0.00000000E+00
  0.00000000E+00  0.00000000E+00  0.00000000E+00
  0.00000000E+00  0.00000000E+00  0.00000000E+00
  0.00000000E+00  0.00000000E+00  0.00000000E+00
  0.00000000E+00  0.00000000E+00  0.00000000E+00
  0.00000000E+00  0.00000000E+00  0.00000000E+00
  0.00000000E+00  0.00000000E+00  0.00000000E+00
  0.00000000E+00  0.00000000E+00  0.00000000E+00
  0.00000000E+00  0.00000000E+00  0.00000000E+00
  0.00000000E+00  0.00000000E+00  0.00000000E+00
  0.00000000E+00  0.00000000E+00  0.00000000E+00
  0.00000000E+00  0.00000000E+00  0.00000000E+00
  0.00000000E+00  0.00000000E+00  0.00000000E+00
  0.00000000E+00  0.00000000E+00  0.00000000E+00
  0.00000000E+00  0.00000000E+00  0.00000000E+00
  0.00000000E+00  0.00000000E+00  0.00000000E+00
  0.00000000E+00  0.00000000E+00  0.00000000E+00
  0.00000000E+00  0.00000000E+00  0.00000000E+00
  0.00000000E+00  0.00000000E+00  0.00000000E+00
  0.00000000E+00  0.00000000E+00  0.00000000E+00
  0.00000000E+00  0.00000000E+00  0.00000000E+00
  0.00000000E+00  0.00000000E+00  0.00000000E+00
  0.00000000E+00  0.00000000E+00  0.00000000E+00
  0.00000000E+00  0.00000000E+00  0.00000000E+00
  0.00000000E+00  0.00000000E+00  0.00000000E+00
  0.00000000E+00  0.00000000E+00  0.00000000E+00
  0.00000000E+00  0.00000000E+00  0.00000000E+00
  0.00000000E+00  0.00000000E+00  0.00000000E+00
  0.00000000E+00  0.00000000E+00  0.00000000E+00
  0.00000000E+00  0.00000000E+00  0.00000000E+00
  0.00000000E+00  0.00000000E+00  0.00000000E+00
  0.00000000E+00  0.00000000E+00  0.00000000E+00
  0.00000000E+00  0.00000000E+00  0.00000000E+00
  0.00000000E+00  0.00000000E+00  0.00000000E+00
  0.00000000E+00  0.00000000E+00  0.00000000E+00
  0.00000000E+00  0.00000000E+00  0.00000000E+00
  0.00000000E+00  0.00000000E+00  0.00000000E+00
  0.00000000E+00  0.00000000E+00  0.00000000E+00
  0.00000000E+00  0.00000000E+00  0.00000000E+00
  0.00000000E+00  0.00000000E+00  0.00000000E+00
  0.00000000E+00  0.00000000E+00  0.00000000E+00
  0.00000000E+00  0.00000000E+00  0.00000000E+00
  0.00000000E+00  0.00000000E+00  0.00000000E+00
  0.00000000E+00  0.00000000E+00  0.00000000E+00
  0.00000000E+00  0.00000000E+00  0.00000000E+00
  0.00000000E+00  0.00000000E+00  0.00000000E+00
  0.00000000E+00  0.00000000E+00  0.00000000E+00
  0.00000000E+00  0.00000000E+00  0.00000000E+00
  0.00000000E+00  0.00000000E+00  0.00000000E+00
  0.00000000E+00  0.00000000E+00  0.00000000E+00
  0.00000000E+00  0.00000000E+00  0.00000000E+00
  0.00000000E+00  0.00000000E+00  0.00000000E+00
  0.00000000E+00  0.00000000E+00  0.00000000E+00
  0.00000000E+00  0.00000000E+00  0.00000000E+00
  0.00000000E+00  0.00000000E+00  0.00000000E+00
  0.00000000E+00  0.00000000E+00  0.00000000E+00
  0.00000000E+00  0.00000000E+00  0.00000000E+00
  0.00000000E+00  0.00000000E+00  0.00000000E+00
  0.00000000E+00  0.00000000E+00  0.00000000E+00
  0.00000000E+00  0.00000000E+00  0.00000000E+00
  0.00000000E+00  0.00000000E+00  0.00000000E+00
  0.00000000E+00  0.00000000E+00  0.00000000E+00
