Cd Au O                                 
   1.00000000000000     
     9.3574772700000004    0.0000000000000000    0.0000000000000006
    -0.0000000000000006    9.9414709200000004    0.0000000000000006
     0.0000000000000000    0.0000000000000000   31.2404451600000002
   Cd   Au   O 
    24    24     1
Selective dynamics
Direct
  0.0000000000000000  0.1250000000000000  0.3843074183333357   F   F   F
  0.0000000000000000  0.3750000000000000  0.4490259150000000   F   F   F
  0.1666666666666643  0.1250000000000000  0.4684567716666663   F   F   F
  0.1666666666666643  0.3750000000000000  0.3648765616666694   F   F   F
  0.0000000000000000  0.1250000000000000  0.5509740850000000   F   F   F
  0.0237958144993868  0.3578944562483173  0.6509219455548561   T   T   T
  0.1655757317111153  0.1154494288387866  0.6322083744150078   T   T   T
  0.1666666666666643  0.3750000000000000  0.5315432283333337   F   F   F
  0.0000000000000000  0.6250000000000000  0.3843074183333357   F   F   F
  0.0000000000000000  0.8750000000000000  0.4490259150000000   F   F   F
  0.1666666666666643  0.6250000000000000  0.4684567716666663   F   F   F
  0.1666666666666643  0.8750000000000000  0.3648765616666694   F   F   F
  0.0000000000000000  0.6250000000000000  0.5509740850000000   F   F   F
  0.0068211324637204  0.8706109849248236  0.6244778174187715   T   T   T
  0.1695029743659333  0.6181701138840552  0.6317015485834432   T   T   T
  0.1666666666666643  0.8750000000000000  0.5315432283333337   F   F   F
  0.3333333333333357  0.1250000000000000  0.3843074183333357   F   F   F
  0.3333333333333357  0.3750000000000000  0.4490259150000000   F   F   F
  0.5000000000000000  0.1250000000000000  0.4684567716666663   F   F   F
  0.5000000000000000  0.3750000000000000  0.3648765616666694   F   F   F
  0.3333333333333357  0.1250000000000000  0.5509740850000000   F   F   F
  0.3322510153638163  0.3668715703273122  0.6297783297002368   T   T   T
  0.4993037151395683  0.1151434241956864  0.6316715090009950   T   T   T
  0.5000000000000000  0.3750000000000000  0.5315432283333337   F   F   F
  0.3333333333333357  0.6250000000000000  0.3843074183333357   F   F   F
  0.3333333333333357  0.8750000000000000  0.4490259150000000   F   F   F
  0.5000000000000000  0.6250000000000000  0.4684567716666663   F   F   F
  0.5000000000000000  0.8750000000000000  0.3648765616666694   F   F   F
  0.3333333333333357  0.6250000000000000  0.5509740850000000   F   F   F
  0.3340962331889870  0.8700951023797430  0.6387219635090844   T   T   T
  0.4968004653412947  0.6190850830893666  0.6311306049672822   T   T   T
  0.5000000000000000  0.8750000000000000  0.5315432283333337   F   F   F
  0.6666666666666643  0.1250000000000000  0.3843074183333357   F   F   F
  0.6666666666666643  0.3750000000000000  0.4490259150000000   F   F   F
  0.8333333333333357  0.1250000000000000  0.4684567716666663   F   F   F
  0.8333333333333357  0.3750000000000000  0.3648765616666694   F   F   F
  0.6666666666666643  0.1250000000000000  0.5509740850000000   F   F   F
  0.6434203465557644  0.3578491604257152  0.6473070312392153   T   T   T
  0.8344441062419179  0.1173473552636466  0.6305921433084762   T   T   T
  0.8333333333333357  0.3750000000000000  0.5315432283333337   F   F   F
  0.6666666666666643  0.6250000000000000  0.3843074183333357   F   F   F
  0.6666666666666643  0.8750000000000000  0.4490259150000000   F   F   F
  0.8333333333333357  0.6250000000000000  0.4684567716666663   F   F   F
  0.8333333333333357  0.8750000000000000  0.3648765616666694   F   F   F
  0.6666666666666643  0.6250000000000000  0.5509740850000000   F   F   F
  0.6626364868227554  0.8707774973804518  0.6247934987465982   T   T   T
  0.8365033010924137  0.6454805420820051  0.6383712970324424   T   T   T
  0.8333333333333357  0.8750000000000000  0.5315432283333337   F   F   F
  0.8312969658127827  0.4531637331509870  0.6721100347172850   T   T   T
 
  0.00000000E+00  0.00000000E+00  0.00000000E+00
  0.00000000E+00  0.00000000E+00  0.00000000E+00
  0.00000000E+00  0.00000000E+00  0.00000000E+00
  0.00000000E+00  0.00000000E+00  0.00000000E+00
  0.00000000E+00  0.00000000E+00  0.00000000E+00
  0.00000000E+00  0.00000000E+00  0.00000000E+00
  0.00000000E+00  0.00000000E+00  0.00000000E+00
  0.00000000E+00  0.00000000E+00  0.00000000E+00
  0.00000000E+00  0.00000000E+00  0.00000000E+00
  0.00000000E+00  0.00000000E+00  0.00000000E+00
  0.00000000E+00  0.00000000E+00  0.00000000E+00
  0.00000000E+00  0.00000000E+00  0.00000000E+00
  0.00000000E+00  0.00000000E+00  0.00000000E+00
  0.00000000E+00  0.00000000E+00  0.00000000E+00
  0.00000000E+00  0.00000000E+00  0.00000000E+00
  0.00000000E+00  0.00000000E+00  0.00000000E+00
  0.00000000E+00  0.00000000E+00  0.00000000E+00
  0.00000000E+00  0.00000000E+00  0.00000000E+00
  0.00000000E+00  0.00000000E+00  0.00000000E+00
  0.00000000E+00  0.00000000E+00  0.00000000E+00
  0.00000000E+00  0.00000000E+00  0.00000000E+00
  0.00000000E+00  0.00000000E+00  0.00000000E+00
  0.00000000E+00  0.00000000E+00  0.00000000E+00
  0.00000000E+00  0.00000000E+00  0.00000000E+00
  0.00000000E+00  0.00000000E+00  0.00000000E+00
  0.00000000E+00  0.00000000E+00  0.00000000E+00
  0.00000000E+00  0.00000000E+00  0.00000000E+00
  0.00000000E+00  0.00000000E+00  0.00000000E+00
  0.00000000E+00  0.00000000E+00  0.00000000E+00
  0.00000000E+00  0.00000000E+00  0.00000000E+00
  0.00000000E+00  0.00000000E+00  0.00000000E+00
  0.00000000E+00  0.00000000E+00  0.00000000E+00
  0.00000000E+00  0.00000000E+00  0.00000000E+00
  0.00000000E+00  0.00000000E+00  0.00000000E+00
  0.00000000E+00  0.00000000E+00  0.00000000E+00
  0.00000000E+00  0.00000000E+00  0.00000000E+00
  0.00000000E+00  0.00000000E+00  0.00000000E+00
  0.00000000E+00  0.00000000E+00  0.00000000E+00
  0.00000000E+00  0.00000000E+00  0.00000000E+00
  0.00000000E+00  0.00000000E+00  0.00000000E+00
  0.00000000E+00  0.00000000E+00  0.00000000E+00
  0.00000000E+00  0.00000000E+00  0.00000000E+00
  0.00000000E+00  0.00000000E+00  0.00000000E+00
  0.00000000E+00  0.00000000E+00  0.00000000E+00
  0.00000000E+00  0.00000000E+00  0.00000000E+00
  0.00000000E+00  0.00000000E+00  0.00000000E+00
  0.00000000E+00  0.00000000E+00  0.00000000E+00
  0.00000000E+00  0.00000000E+00  0.00000000E+00
  0.00000000E+00  0.00000000E+00  0.00000000E+00
