Cd Au O
 1.0000000000000000
     9.3574772700000004    0.0000000000000000    0.0000000000000006
    -0.0000000000000006    9.9414709200000004    0.0000000000000006
     0.0000000000000000    0.0000000000000000   31.2404451600000002
Cd Au O
24 24 1
Selective dynamics
Cartesian
 -0.0000000000000001  1.2426838650000001 12.0059348270236796   F   F   F
 -0.0000000000000002  3.7280515950000002 14.0277694729763223   F   F   F
  1.5595795450000001  1.2426838650000001 14.6347980850831423   F   F   F
  1.5595795449999998  3.7280515950000002 11.3989062149168596   F   F   F
 -0.0000000000000001  1.2426838650000001 17.2126756870236797   F   F   F
  0.2226687932991351  3.5579973292218376 20.3350913435470737   T   T   T
  1.5493711459504116  1.1477371395313831 19.7504710506048120   T   T   T
  1.5595795449999998  3.7280515950000002 16.6056470749168632   F   F   F
 -0.0000000000000004  6.2134193250000003 12.0059348270236796   F   F   F
 -0.0000000000000005  8.6987870550000004 14.0277694729763223   F   F   F
  1.5595795449999998  6.2134193250000003 14.6347980850831423   F   F   F
  1.5595795449999996  8.6987870550000004 11.3989062149168596   F   F   F
 -0.0000000000000004  6.2134193250000003 17.2126756870236797   F   F   F
  0.0638285919849290  8.6551537892627017 19.5089650087075732   T   T   T
  1.5861202298266137  6.1455202107914424 19.7346375860081586   T   T   T
  1.5595795449999996  8.6987870550000004 16.6056470749168632   F   F   F
  3.1191590900000001  1.2426838650000001 12.0059348270236796   F   F   F
  3.1191590899999997  3.7280515950000002 14.0277694729763223   F   F   F
  4.6787386350000002  1.2426838650000001 14.6347980850831423   F   F   F
  4.6787386350000002  3.7280515950000002 11.3989062149168596   F   F   F
  3.1191590900000001  1.2426838650000001 17.2126756870236797   F   F   F
  3.1090313242013567  3.6472430477837072 19.6745553719566395   T   T   T
  4.6722231652450414  1.1446950032706091 19.7336991360800873   T   T   T
  4.6787386350000002  3.7280515950000002 16.6056470749168632   F   F   F
  3.1191590899999997  6.2134193250000003 12.0059348270236796   F   F   F
  3.1191590899999992  8.6987870550000004 14.0277694729763223   F   F   F
  4.6787386350000002  6.2134193250000003 14.6347980850831423   F   F   F
  4.6787386349999993  8.6987870550000004 11.3989062149168596   F   F   F
  3.1191590899999997  6.2134193250000003 17.2126756870236797   F   F   F
  3.1262979080585920  8.6500251579426255 19.9539584734930848   T   T   T
  4.6487990621565682  6.1546163505387135 19.7168010532780151   T   T   T
  4.6787386349999993  8.6987870550000004 16.6056470749168632   F   F   F
  6.2383181800000003  1.2426838650000001 12.0059348270236796   F   F   F
  6.2383181800000003  3.7280515950000002 14.0277694729763223   F   F   F
  7.7978977250000003  1.2426838650000001 14.6347980850831423   F   F   F
  7.7978977250000003  3.7280515950000002 11.3989062149168596   F   F   F
  6.2383181800000003  1.2426838650000001 17.2126756870236797   F   F   F
  6.0207912679510756  3.5575470221186727 20.2221598111110232   T   T   T
  7.8082917572442216  1.1666053198924793 19.6999792713552431   T   T   T
  7.7978977250000003  3.7280515950000002 16.6056470749168632   F   F   F
  6.2383181800000003  6.2134193250000003 12.0059348270236796   F   F   F
  6.2383181800000003  8.6987870550000004 14.0277694729763223   F   F   F
  7.7978977250000003  6.2134193250000003 14.6347980850831423   F   F   F
  7.7978977250000003  8.6987870550000004 11.3989062149168596   F   F   F
  6.2383181800000003  6.2134193250000003 17.2126756870236797   F   F   F
  6.2006058637165680  8.6568091679981514 19.5188270339177414   T   T   T
  7.8275606262522093  6.4170260385341003 19.9430034966601504   T   T   T
  7.7978977250000003  8.6987870550000004 16.6056470749168632   F   F   F
  7.7788424622130954  4.5051140751191596 20.9970166810710595   T   T   T
