Te H O
 1.0000000000000000
     9.6829936960780039    0.0000000000000000    0.0000000000000006
    -0.0000000000000006    9.6829936960780039    0.0000000000000006
     0.0000000000000000    0.0000000000000000   32.2766456535933486
Te H O
27 1 1
Selective dynamics
Cartesian
  0.0000000000000000  0.0000000000000000 12.9106582614373391   F   F   F
  0.0000000000000000  0.0000000000000000 16.1383228267966743   F   F   F
  0.1443625027532107 -0.1435537756769918 19.1458571060929401   T   T   T
 -0.0000000000000002  3.2276645653593348 12.9106582614373391   F   F   F
 -0.0000000000000002  3.2276645653593348 16.1383228267966743   F   F   F
 -0.0376230514739293  3.2309392534490669 19.1452711993324058   T   T   T
 -0.0000000000000004  6.4553291307186695 12.9106582614373391   F   F   F
 -0.0000000000000004  6.4553291307186695 16.1383228267966743   F   F   F
  0.0107922722745566  6.4405076487985893 19.1487847316047421   T   T   T
  3.2276645653593348  0.0000000000000000 12.9106582614373391   F   F   F
  3.2276645653593348  0.0000000000000000 16.1383228267966743   F   F   F
  3.1715236535375495  0.1046274525106128 19.1789996926226607   T   T   T
  3.2276645653593348  3.2276645653593348 12.9106582614373391   F   F   F
  3.2276645653593348  3.2276645653593348 16.1383228267966743   F   F   F
  3.1957290183119382  3.2115419710327457 19.1779320949546630   T   T   T
  3.2276645653593343  6.4553291307186695 12.9106582614373391   F   F   F
  3.2276645653593343  6.4553291307186695 16.1383228267966743   F   F   F
  3.3165145836802887  6.3355012655140994 19.2623268662454805   T   T   T
  6.4553291307186695  0.0000000000000000 12.9106582614373391   F   F   F
  6.4553291307186695  0.0000000000000000 16.1383228267966743   F   F   F
  6.4200501303660671  0.0390605915872584 19.1427940215716674   T   T   T
  6.4553291307186695  3.2276645653593348 12.9106582614373391   F   F   F
  6.4553291307186695  3.2276645653593348 16.1383228267966743   F   F   F
  6.5656765603874332  3.1273517600685934 19.1424709197216956   T   T   T
  6.4553291307186695  6.4553291307186695 12.9106582614373391   F   F   F
  6.4553291307186695  6.4553291307186695 16.1383228267966743   F   F   F
  6.3591752112500357  6.4846034358436695 19.1343504549649381   T   T   T
  3.3525661720084292  6.8945241869694120 21.7613934772547637   T   T   T
  3.3272612947627085  6.0196089534581620 21.3222784971994166   T   T   T
