Se Tl H O                               
   1.00000000000000     
    14.4232537018759395    0.0000000000000000    0.1330613426529288
     1.9664080866006213    8.6952780322739436    0.3546510662085637
     0.0000000000000000    0.0000000000000000   39.2909851637524525
   Se   Tl   H    O 
    24    16     1     1
Selective dynamics
Direct
  0.4030357783860410  0.7891873247204586  0.5746452905356421   T   T   T
  0.1499962999999980  0.1500055500000030  0.4499981499999990   F   F   F
  0.1000037000000020  0.3499944499999970  0.5500018500000010   F   F   F
  0.3500037000000020  0.7249944499999970  0.4250018500000010   F   F   F
  0.3382625320794332  0.5026982281547276  0.5574269749501823   T   T   T
  0.0864386300000035  0.8958426275000022  0.4331759175000016   F   F   F
  0.4584171205194707  0.0272487554947674  0.5874472418295156   T   T   T
  0.2074658424999996  0.4133006637500003  0.4637763187499999   F   F   F
  0.4135613699999965  0.9791573724999978  0.4418240824999984   F   F   F
  0.1699761309426009  0.5901288533004276  0.5643172879969711   T   T   T
  0.0425341575000004  0.0866993362499997  0.5362236812500001   F   F   F
  0.2925341575000004  0.4616993362499997  0.4112236812500001   F   F   F
  0.2968748252022451  0.1507344711012877  0.5300337329947880   T   T   T
  0.0484259824999995  0.5198510262500022  0.3982666712499991   F   F   F
  0.2419242624999995  0.7946236062499992  0.4969084512500004   F   F   F
  0.4443629145145707  0.4788785433393841  0.6287358195402746   T   T   T
  0.4515740175000005  0.3551489737499978  0.4767333287500009   F   F   F
  0.2134229510244481  0.8240992292736635  0.6245251454637781   T   T   T
  0.2580757375000005  0.0803763937500008  0.3780915487499996   F   F   F
  0.0080757375000005  0.7053763937500008  0.5030915487499996   F   F   F
  0.9001620447035492  0.8116347872779528  0.5750350121579118   T   T   T
  0.6499962999999980  0.1500055500000030  0.4499981499999990   F   F   F
  0.6000037000000020  0.3499944499999970  0.5500018500000010   F   F   F
  0.8500037000000020  0.7249944499999970  0.4250018500000010   F   F   F
  0.8356878170040005  0.4976152782990013  0.5538721399748709   T   T   T
  0.5864386300000035  0.8958426275000022  0.4331759175000016   F   F   F
  0.9664839212861196  0.0289071101994622  0.5883532041632407   T   T   T
  0.7074658424999996  0.4133006637500003  0.4637763187499999   F   F   F
  0.9135613700000036  0.9791573724999978  0.4418240824999984   F   F   F
  0.6702189168020354  0.5781577884731490  0.5662934666860053   T   T   T
  0.5425341575000004  0.0866993362499997  0.5362236812500001   F   F   F
  0.7925341575000004  0.4616993362499997  0.4112236812500001   F   F   F
  0.8023633453340224  0.1695209552906931  0.5250334831993584   T   T   T
  0.5484259824999995  0.5198510262500022  0.3982666712499991   F   F   F
  0.7419242624999995  0.7946236062499992  0.4969084512500004   F   F   F
  0.9804558396936542  0.4876771507588629  0.6133954426063468   T   T   T
  0.9515740175000005  0.3551489737499978  0.4767333287500009   F   F   F
  0.6807896840599028  0.0220389952227720  0.5980667812186553   T   T   T
  0.7580757375000005  0.0803763937500008  0.3780915487499996   F   F   F
  0.5080757375000005  0.7053763937500008  0.5030915487499996   F   F   F
  0.2894150193152711  0.5820057427013552  0.6773636496754989   T   T   T
  0.2857065121458717  0.5787725927443432  0.6526247007721722   T   T   T
 
  0.00000000E+00  0.00000000E+00  0.00000000E+00
  0.00000000E+00  0.00000000E+00  0.00000000E+00
  0.00000000E+00  0.00000000E+00  0.00000000E+00
  0.00000000E+00  0.00000000E+00  0.00000000E+00
  0.00000000E+00  0.00000000E+00  0.00000000E+00
  0.00000000E+00  0.00000000E+00  0.00000000E+00
  0.00000000E+00  0.00000000E+00  0.00000000E+00
  0.00000000E+00  0.00000000E+00  0.00000000E+00
  0.00000000E+00  0.00000000E+00  0.00000000E+00
  0.00000000E+00  0.00000000E+00  0.00000000E+00
  0.00000000E+00  0.00000000E+00  0.00000000E+00
  0.00000000E+00  0.00000000E+00  0.00000000E+00
  0.00000000E+00  0.00000000E+00  0.00000000E+00
  0.00000000E+00  0.00000000E+00  0.00000000E+00
  0.00000000E+00  0.00000000E+00  0.00000000E+00
  0.00000000E+00  0.00000000E+00  0.00000000E+00
  0.00000000E+00  0.00000000E+00  0.00000000E+00
  0.00000000E+00  0.00000000E+00  0.00000000E+00
  0.00000000E+00  0.00000000E+00  0.00000000E+00
  0.00000000E+00  0.00000000E+00  0.00000000E+00
  0.00000000E+00  0.00000000E+00  0.00000000E+00
  0.00000000E+00  0.00000000E+00  0.00000000E+00
  0.00000000E+00  0.00000000E+00  0.00000000E+00
  0.00000000E+00  0.00000000E+00  0.00000000E+00
  0.00000000E+00  0.00000000E+00  0.00000000E+00
  0.00000000E+00  0.00000000E+00  0.00000000E+00
  0.00000000E+00  0.00000000E+00  0.00000000E+00
  0.00000000E+00  0.00000000E+00  0.00000000E+00
  0.00000000E+00  0.00000000E+00  0.00000000E+00
  0.00000000E+00  0.00000000E+00  0.00000000E+00
  0.00000000E+00  0.00000000E+00  0.00000000E+00
  0.00000000E+00  0.00000000E+00  0.00000000E+00
  0.00000000E+00  0.00000000E+00  0.00000000E+00
  0.00000000E+00  0.00000000E+00  0.00000000E+00
  0.00000000E+00  0.00000000E+00  0.00000000E+00
  0.00000000E+00  0.00000000E+00  0.00000000E+00
  0.00000000E+00  0.00000000E+00  0.00000000E+00
  0.00000000E+00  0.00000000E+00  0.00000000E+00
  0.00000000E+00  0.00000000E+00  0.00000000E+00
  0.00000000E+00  0.00000000E+00  0.00000000E+00
  0.00000000E+00  0.00000000E+00  0.00000000E+00
  0.00000000E+00  0.00000000E+00  0.00000000E+00
