Se Tl H O
 1.0000000000000000
    14.4232537018759395    0.0000000000000000    0.1330613426529288
     1.9664080866006213    8.6952780322739436    0.3546510662085637
     0.0000000000000000    0.0000000000000000   39.2909851637524525
Se Tl H O
24 16 1 1
Selective dynamics
Cartesian
  7.3649516197679405  6.8622032079908459 22.9118941928157547   T   T   T
  2.4584068157976673  1.3043399636341702 17.7540289726817271   F   F   F
  2.1306106529716260  3.0432990525027996 21.7475470598382401   F   F   F
  6.4738271109158463  6.3040283146055325 17.0024333998606316   F   F   F
  5.8673561789838544  4.3711008601368118 22.1251471319267949   T   T   T
  3.0083184771701315  7.7896007192753158 17.3491217309501948   F   F   F
  6.6654486036904546  0.2369355050604655 23.1520422609513901   T   T   T
  3.8050502482463382  3.5937641822296156 18.3964116639272959   F   F   F
  7.8903235361439998  8.5140455912383235 17.7619917078007248   F   F   F
  3.6120430091147808  5.1313344543142394 22.4044892695637046   T   T   T
  0.7839672205229551  0.7538748339073544 21.1051643685926784   F   F   F
  5.1271836784671736  4.0146040960100828 16.3600507086150557   F   F   F
  4.5783064044950459  1.3106781352734409 20.9185082431183531   T   T   T
  1.7206994932057378  4.5202492086066917 15.8390992182807384   F   F   F
  5.0518892998104743  6.9094731873519253 19.8380274621865880   F   F   F
  7.3508296918707208  4.1639820780262937 24.9326120694868862   T   T   T
  7.2115344335077713  3.0881190696330085 18.9173631542616114   F   F   F
  4.6987687570337453  7.1657719247171432 24.8588742395473332   T   T   T
  3.8803446269030344  0.6988950908877771 14.9184349103557672   F   F   F
  1.5035362555594387  6.1334438610589892 20.0181996365419472   F   F   F
 14.5792707526284318  7.0573901360473466 23.0013160442881812   T   T   T
  9.6700336667356375  1.3043399636341702 17.8205596440081919   F   F   F
  9.3422375039095957  3.0432990525027996 21.8140777311647049   F   F   F
 13.6854539618538169  6.3040283146055325 17.0689640711870965   F   F   F
 13.0318521074787217  4.3269031979171810 22.0498595663480224   T   T   T
 10.2199453281081016  7.7896007192753158 17.4156524022766597   F   F   F
 13.9966859707500362  0.2513553602938929 23.2558306014962888   T   T   T
 11.0166770991843084  3.5937641822296156 18.4629423352537607   F   F   F
 15.1019503870819705  8.5140455912383235 17.8285223791271896   F   F   F
 10.8036316234170080  5.0272427172986882 22.5444527029495525   T   T   T
  7.9955940714609248  0.7538748339073544 21.1716950399191433   F   F   F
 12.3388105294051442  4.0146040960100828 16.4265813799415206   F   F   F
 11.9060374681703713  1.4740318385492295 20.7959671304233105   T   T   T
  8.9323263441437071  4.5202492086066917 15.9056298896072033   F   F   F
 12.2635161507484440  6.9094731873519253 19.9045581335130528   F   F   F
 15.1003356122899675  4.2404884158354719 24.4043272268829803   T   T   T
 14.4231612844457402  3.0881190696330085 18.9838938255880763   F   F   F
 11.8289480758431651  8.8869132232878716 23.9516870365829995   T   T   T
 11.0919714778410032  0.6988950908877771 14.9849655816822320   F   F   F
  8.7151631064974087  6.1334438610589892 20.0847303078684121   F   F   F
  5.3187670476134485  5.0607017491684010 26.8592040181078531   T   T   T
  5.2589206156333059  5.0325886113720983 25.8855462447577978   T   T   T
