Y Cu S O                                
   1.00000000000000     
    13.5443797292033210    0.0000000000000000    0.0000000000000008
    -6.7721898646016649   11.7297769239930698    0.0000000000000008
     0.0000000000000000    0.0000000000000000   58.1324000388725111
   Y    Cu   S    O 
    24    72    72     1
Selective dynamics
Direct
  0.9990761363578287  0.0003243979355645  0.6106899025161709   T   T   T
  0.0000000000000000  0.0000000000000000  0.3888307266666686   F   F   F
  0.1666666666666643  0.3333333333333357  0.3889470511111099   F   F   F
  0.1666666666666643  0.3333333333333357  0.4999418377777758   F   F   F
  0.3333081707119376  0.1666937388491831  0.5000426333491532   T   T   T
  0.3324528268627702  0.1652343833792358  0.6109003717684445   T   T   T
  0.5089988462946025  0.3369489703704147  0.6445178221702221   T   T   T
  0.2986967971851513  0.9660290218503746  0.6499938636484188   T   T   T
  0.1679302807286334  0.1739966447443138  0.6451289317562967   T   T   T
  0.3334213366666674  0.3357577533333327  0.3477250044444418   F   F   F
  0.1642422466666673  0.4976635833333347  0.3477250044444418   F   F   F
  0.0023364166666653  0.1665786633333326  0.3477250044444418   F   F   F
  0.1643302499999990  0.1667546700000031  0.4300527733333368   F   F   F
  0.0024244199999970  0.3356697500000010  0.4300527733333368   F   F   F
  0.3332453299999969  0.4975755800000030  0.4300527733333368   F   F   F
  0.0000880033333317  0.1690910866666684  0.4588361155555560   F   F   F
  0.3309089133333316  0.3309969166666704  0.4588361155555560   F   F   F
  0.1690030833333367  0.4999119966666683  0.4588361155555560   F   F   F
  0.3309969166666704  0.0000880033333317  0.5411638844444440   F   F   F
  0.1690910866666684  0.1690030833333296  0.5411638844444440   F   F   F
  0.4999119966666683  0.3309089133333316  0.5411638844444440   F   F   F
  0.1667546700000031  0.0024244199999970  0.5699472266666703   F   F   F
  0.4975755800000030  0.1643302499999990  0.5699472266666703   F   F   F
  0.3356697500000010  0.3332453299999969  0.5699472266666703   F   F   F
  0.1670297466666639  0.1671066433333337  0.3608713477777812   F   F   F
  0.3328933566666663  0.4999231033333302  0.3608713477777812   F   F   F
  0.0000768966666698  0.3329702533333361  0.3608713477777812   F   F   F
  0.5048351744650503  0.1699154705369708  0.6430147971632394   T   T   T
  0.1648714115459526  0.0060559590349669  0.6396479578922154   T   T   T
  0.3401273880840634  0.3343719446890390  0.6407347528955469   T   T   T
  0.3336964133333353  0.0004399766666694  0.4719824588888883   F   F   F
  0.4995600233333306  0.3332564366666659  0.4719824588888883   F   F   F
  0.1667435633333341  0.1663035866666647  0.4719824588888883   F   F   F
  0.1665897700000016  0.0003630799999996  0.4169064299999974   F   F   F
  0.3337733099999980  0.3334102299999984  0.4169064299999974   F   F   F
  0.4996369200000004  0.1662266900000020  0.4169064299999974   F   F   F
  0.0003630799999996  0.3337733099999980  0.5830935700000026   F   F   F
  0.1662266900000020  0.1665897700000016  0.5830935700000026   F   F   F
  0.3334102299999984  0.4996369200000004  0.5830935700000026   F   F   F
  0.3332564366666659  0.3336964133333353  0.5280175411111117   F   F   F
  0.0004399766666694  0.1667435633333341  0.5280175411111117   F   F   F
  0.1663035866666647  0.4995600233333306  0.5280175411111117   F   F   F
  0.0014921647661481  0.5010199869574947  0.6107205519446524   T   T   T
  0.0000000000000000  0.5000000000000000  0.3888307266666686   F   F   F
  0.1666666666666643  0.8333333333333357  0.3889470511111099   F   F   F
  0.1666666666666643  0.8333333333333357  0.4999418377777758   F   F   F
  0.3333358095917092  0.6667869367659449  0.5000487565985168   T   T   T
  0.3342252324093380  0.6665169845258276  0.6106521117223522   T   T   T
  0.5066936197726761  0.8344757861989365  0.6454532012759486   T   T   T
  0.3295873691012972  0.4952507522808034  0.6452519278952948   T   T   T
  0.1670098525502581  0.6728858721054394  0.6450064912428886   T   T   T
  0.3334213366666674  0.8357577533333327  0.3477250044444418   F   F   F
  0.1642422466666673  0.9976635833333347  0.3477250044444418   F   F   F
  0.0023364166666653  0.6665786633333326  0.3477250044444418   F   F   F
  0.1643302499999990  0.6667546700000031  0.4300527733333368   F   F   F
  0.0024244199999970  0.8356697500000010  0.4300527733333368   F   F   F
  0.3332453299999969  0.9975755800000030  0.4300527733333368   F   F   F
  0.0000880033333317  0.6690910866666684  0.4588361155555560   F   F   F
  0.3309089133333316  0.8309969166666704  0.4588361155555560   F   F   F
  0.1690030833333296  0.9999119966666683  0.4588361155555560   F   F   F
  0.3309969166666704  0.5000880033333317  0.5411638844444440   F   F   F
  0.1690910866666684  0.6690030833333367  0.5411638844444440   F   F   F
  0.4999119966666683  0.8309089133333316  0.5411638844444440   F   F   F
  0.1667546700000031  0.5024244199999970  0.5699472266666703   F   F   F
  0.4975755800000030  0.6643302499999990  0.5699472266666703   F   F   F
  0.3356697500000010  0.8332453299999969  0.5699472266666703   F   F   F
  0.1670297466666639  0.6671066433333337  0.3608713477777812   F   F   F
  0.3328933566666663  0.9999231033333302  0.3608713477777812   F   F   F
  0.0000768966666698  0.8329702533333361  0.3608713477777812   F   F   F
  0.4962723692230497  0.6631289499801127  0.6409572938746422   T   T   T
  0.1688286175905418  0.5061833972233387  0.6408997080437757   T   T   T
  0.3390347646076748  0.8315409165012113  0.6396367783077608   T   T   T
  0.3336964133333353  0.5004399766666694  0.4719824588888883   F   F   F
  0.4995600233333306  0.8332564366666659  0.4719824588888883   F   F   F
  0.1667435633333341  0.6663035866666647  0.4719824588888883   F   F   F
  0.1665897700000016  0.5003630799999996  0.4169064299999974   F   F   F
  0.3337733099999980  0.8334102299999984  0.4169064299999974   F   F   F
  0.4996369200000004  0.6662266900000020  0.4169064299999974   F   F   F
  0.0003630799999996  0.8337733099999980  0.5830935700000026   F   F   F
  0.1662266900000020  0.6665897700000016  0.5830935700000026   F   F   F
  0.3334102299999984  0.9996369200000004  0.5830935700000026   F   F   F
  0.3332564366666659  0.8336964133333353  0.5280175411111117   F   F   F
  0.0004399766666694  0.6667435633333341  0.5280175411111117   F   F   F
  0.1663035866666647  0.9995600233333306  0.5280175411111117   F   F   F
  0.4983794028546527  0.9984409521346862  0.6108264664852499   T   T   T
  0.5000000000000000  0.0000000000000000  0.3888307266666686   F   F   F
  0.6666666666666643  0.3333333333333357  0.3889470511111099   F   F   F
  0.6666666666666643  0.3333333333333357  0.4999418377777758   F   F   F
  0.8332964129237439  0.1666194247205084  0.5000303601349572   T   T   T
  0.8351918625574370  0.1668489603633887  0.6106329655109306   T   T   T
  0.0096716533240837  0.3342264697745705  0.6448471384695935   T   T   T
  0.8285515919272726  0.9952049231234028  0.6452622757735114   T   T   T
  0.6722490242503341  0.1745640916155864  0.6442496126242929   T   T   T
  0.8334213366666674  0.3357577533333327  0.3477250044444418   F   F   F
  0.6642422466666673  0.4976635833333347  0.3477250044444418   F   F   F
  0.5023364166666653  0.1665786633333326  0.3477250044444418   F   F   F
  0.6643302499999990  0.1667546700000031  0.4300527733333368   F   F   F
  0.5024244199999970  0.3356697500000010  0.4300527733333368   F   F   F
  0.8332453299999969  0.4975755800000030  0.4300527733333368   F   F   F
  0.5000880033333317  0.1690910866666684  0.4588361155555560   F   F   F
  0.8309089133333316  0.3309969166666704  0.4588361155555560   F   F   F
  0.6690030833333367  0.4999119966666683  0.4588361155555560   F   F   F
  0.8309969166666704  0.0000880033333317  0.5411638844444440   F   F   F
  0.6690910866666684  0.1690030833333296  0.5411638844444440   F   F   F
  0.9999119966666683  0.3309089133333316  0.5411638844444440   F   F   F
  0.6667546700000031  0.0024244199999970  0.5699472266666703   F   F   F
  0.9975755800000030  0.1643302499999990  0.5699472266666703   F   F   F
  0.8356697500000010  0.3332453299999969  0.5699472266666703   F   F   F
  0.6670297466666639  0.1671066433333337  0.3608713477777812   F   F   F
  0.8328933566666663  0.4999231033333302  0.3608713477777812   F   F   F
  0.5000768966666698  0.3329702533333361  0.3608713477777812   F   F   F
  0.9960645336480596  0.1621950238631342  0.6408700358967678   T   T   T
  0.6674333101664374  0.0049268693774422  0.6405020083285962   T   T   T
  0.8428663951925657  0.3353635791562297  0.6408604072046415   T   T   T
  0.8336964133333353  0.0004399766666694  0.4719824588888883   F   F   F
  0.9995600233333306  0.3332564366666659  0.4719824588888883   F   F   F
  0.6667435633333341  0.1663035866666647  0.4719824588888883   F   F   F
  0.6665897700000016  0.0003630799999996  0.4169064299999974   F   F   F
  0.8337733099999980  0.3334102299999984  0.4169064299999974   F   F   F
  0.9996369200000004  0.1662266900000020  0.4169064299999974   F   F   F
  0.5003630799999996  0.3337733099999980  0.5830935700000026   F   F   F
  0.6662266900000020  0.1665897700000016  0.5830935700000026   F   F   F
  0.8334102299999984  0.4996369200000004  0.5830935700000026   F   F   F
  0.8332564366666659  0.3336964133333353  0.5280175411111117   F   F   F
  0.5004399766666694  0.1667435633333341  0.5280175411111117   F   F   F
  0.6663035866666647  0.4995600233333306  0.5280175411111117   F   F   F
  0.5008143171209838  0.5015484732265776  0.6107629296147934   T   T   T
  0.5000000000000000  0.5000000000000000  0.3888307266666686   F   F   F
  0.6666666666666643  0.8333333333333357  0.3889470511111099   F   F   F
  0.6666666666666643  0.8333333333333357  0.4999418377777758   F   F   F
  0.8333691314390208  0.6666601786038626  0.5000488514215533   T   T   T
  0.8343158396438568  0.6671438363012143  0.6108180456312482   T   T   T
  0.0071727042477292  0.8332504406304082  0.6450436589133943   T   T   T
  0.8280009181548564  0.4937197468333778  0.6451353208644619   T   T   T
  0.6678032345423901  0.6751508795297951  0.6449982012027249   T   T   T
  0.8334213366666674  0.8357577533333327  0.3477250044444418   F   F   F
  0.6642422466666673  0.9976635833333347  0.3477250044444418   F   F   F
  0.5023364166666653  0.6665786633333326  0.3477250044444418   F   F   F
  0.6643302499999990  0.6667546700000031  0.4300527733333368   F   F   F
  0.5024244199999970  0.8356697500000010  0.4300527733333368   F   F   F
  0.8332453299999969  0.9975755800000030  0.4300527733333368   F   F   F
  0.5000880033333317  0.6690910866666684  0.4588361155555560   F   F   F
  0.8309089133333316  0.8309969166666704  0.4588361155555560   F   F   F
  0.6690030833333367  0.9999119966666683  0.4588361155555560   F   F   F
  0.8309969166666704  0.5000880033333317  0.5411638844444440   F   F   F
  0.6690910866666684  0.6690030833333367  0.5411638844444440   F   F   F
  0.9999119966666683  0.8309089133333316  0.5411638844444440   F   F   F
  0.6667546700000031  0.5024244199999970  0.5699472266666703   F   F   F
  0.9975755800000030  0.6643302499999990  0.5699472266666703   F   F   F
  0.8356697500000010  0.8332453299999969  0.5699472266666703   F   F   F
  0.6670297466666639  0.6671066433333337  0.3608713477777812   F   F   F
  0.8328933566666663  0.9999231033333302  0.3608713477777812   F   F   F
  0.5000768966666698  0.8329702533333361  0.3608713477777812   F   F   F
  0.9955546815997707  0.6617242225897542  0.6407914430780863   T   T   T
  0.6689108981541381  0.5080949973460491  0.6406501546291992   T   T   T
  0.8397530863758220  0.8344813898896177  0.6409615633727341   T   T   T
  0.8336964133333353  0.5004399766666694  0.4719824588888883   F   F   F
  0.9995600233333306  0.8332564366666659  0.4719824588888883   F   F   F
  0.6667435633333341  0.6663035866666647  0.4719824588888883   F   F   F
  0.6665897700000016  0.5003630799999996  0.4169064299999974   F   F   F
  0.8337733099999980  0.8334102299999984  0.4169064299999974   F   F   F
  0.9996369200000004  0.6662266900000020  0.4169064299999974   F   F   F
  0.5003630799999996  0.8337733099999980  0.5830935700000026   F   F   F
  0.6662266900000020  0.6665897700000016  0.5830935700000026   F   F   F
  0.8334102299999984  0.9996369200000004  0.5830935700000026   F   F   F
  0.8332564366666659  0.8336964133333353  0.5280175411111117   F   F   F
  0.5004399766666694  0.6667435633333341  0.5280175411111117   F   F   F
  0.6663035866666647  0.9995600233333306  0.5280175411111117   F   F   F
  0.4349936919676765  0.0981993364162008  0.6653974843295316   T   T   T
 
  0.00000000E+00  0.00000000E+00  0.00000000E+00
  0.00000000E+00  0.00000000E+00  0.00000000E+00
  0.00000000E+00  0.00000000E+00  0.00000000E+00
  0.00000000E+00  0.00000000E+00  0.00000000E+00
  0.00000000E+00  0.00000000E+00  0.00000000E+00
  0.00000000E+00  0.00000000E+00  0.00000000E+00
  0.00000000E+00  0.00000000E+00  0.00000000E+00
  0.00000000E+00  0.00000000E+00  0.00000000E+00
  0.00000000E+00  0.00000000E+00  0.00000000E+00
  0.00000000E+00  0.00000000E+00  0.00000000E+00
  0.00000000E+00  0.00000000E+00  0.00000000E+00
  0.00000000E+00  0.00000000E+00  0.00000000E+00
  0.00000000E+00  0.00000000E+00  0.00000000E+00
  0.00000000E+00  0.00000000E+00  0.00000000E+00
  0.00000000E+00  0.00000000E+00  0.00000000E+00
  0.00000000E+00  0.00000000E+00  0.00000000E+00
  0.00000000E+00  0.00000000E+00  0.00000000E+00
  0.00000000E+00  0.00000000E+00  0.00000000E+00
  0.00000000E+00  0.00000000E+00  0.00000000E+00
  0.00000000E+00  0.00000000E+00  0.00000000E+00
  0.00000000E+00  0.00000000E+00  0.00000000E+00
  0.00000000E+00  0.00000000E+00  0.00000000E+00
  0.00000000E+00  0.00000000E+00  0.00000000E+00
  0.00000000E+00  0.00000000E+00  0.00000000E+00
  0.00000000E+00  0.00000000E+00  0.00000000E+00
  0.00000000E+00  0.00000000E+00  0.00000000E+00
  0.00000000E+00  0.00000000E+00  0.00000000E+00
  0.00000000E+00  0.00000000E+00  0.00000000E+00
  0.00000000E+00  0.00000000E+00  0.00000000E+00
  0.00000000E+00  0.00000000E+00  0.00000000E+00
  0.00000000E+00  0.00000000E+00  0.00000000E+00
  0.00000000E+00  0.00000000E+00  0.00000000E+00
  0.00000000E+00  0.00000000E+00  0.00000000E+00
  0.00000000E+00  0.00000000E+00  0.00000000E+00
  0.00000000E+00  0.00000000E+00  0.00000000E+00
  0.00000000E+00  0.00000000E+00  0.00000000E+00
  0.00000000E+00  0.00000000E+00  0.00000000E+00
  0.00000000E+00  0.00000000E+00  0.00000000E+00
  0.00000000E+00  0.00000000E+00  0.00000000E+00
  0.00000000E+00  0.00000000E+00  0.00000000E+00
  0.00000000E+00  0.00000000E+00  0.00000000E+00
  0.00000000E+00  0.00000000E+00  0.00000000E+00
  0.00000000E+00  0.00000000E+00  0.00000000E+00
  0.00000000E+00  0.00000000E+00  0.00000000E+00
  0.00000000E+00  0.00000000E+00  0.00000000E+00
  0.00000000E+00  0.00000000E+00  0.00000000E+00
  0.00000000E+00  0.00000000E+00  0.00000000E+00
  0.00000000E+00  0.00000000E+00  0.00000000E+00
  0.00000000E+00  0.00000000E+00  0.00000000E+00
  0.00000000E+00  0.00000000E+00  0.00000000E+00
  0.00000000E+00  0.00000000E+00  0.00000000E+00
  0.00000000E+00  0.00000000E+00  0.00000000E+00
  0.00000000E+00  0.00000000E+00  0.00000000E+00
  0.00000000E+00  0.00000000E+00  0.00000000E+00
  0.00000000E+00  0.00000000E+00  0.00000000E+00
  0.00000000E+00  0.00000000E+00  0.00000000E+00
  0.00000000E+00  0.00000000E+00  0.00000000E+00
  0.00000000E+00  0.00000000E+00  0.00000000E+00
  0.00000000E+00  0.00000000E+00  0.00000000E+00
  0.00000000E+00  0.00000000E+00  0.00000000E+00
  0.00000000E+00  0.00000000E+00  0.00000000E+00
  0.00000000E+00  0.00000000E+00  0.00000000E+00
  0.00000000E+00  0.00000000E+00  0.00000000E+00
  0.00000000E+00  0.00000000E+00  0.00000000E+00
  0.00000000E+00  0.00000000E+00  0.00000000E+00
  0.00000000E+00  0.00000000E+00  0.00000000E+00
  0.00000000E+00  0.00000000E+00  0.00000000E+00
  0.00000000E+00  0.00000000E+00  0.00000000E+00
  0.00000000E+00  0.00000000E+00  0.00000000E+00
  0.00000000E+00  0.00000000E+00  0.00000000E+00
  0.00000000E+00  0.00000000E+00  0.00000000E+00
  0.00000000E+00  0.00000000E+00  0.00000000E+00
  0.00000000E+00  0.00000000E+00  0.00000000E+00
  0.00000000E+00  0.00000000E+00  0.00000000E+00
  0.00000000E+00  0.00000000E+00  0.00000000E+00
  0.00000000E+00  0.00000000E+00  0.00000000E+00
  0.00000000E+00  0.00000000E+00  0.00000000E+00
  0.00000000E+00  0.00000000E+00  0.00000000E+00
  0.00000000E+00  0.00000000E+00  0.00000000E+00
  0.00000000E+00  0.00000000E+00  0.00000000E+00
  0.00000000E+00  0.00000000E+00  0.00000000E+00
  0.00000000E+00  0.00000000E+00  0.00000000E+00
  0.00000000E+00  0.00000000E+00  0.00000000E+00
  0.00000000E+00  0.00000000E+00  0.00000000E+00
  0.00000000E+00  0.00000000E+00  0.00000000E+00
  0.00000000E+00  0.00000000E+00  0.00000000E+00
  0.00000000E+00  0.00000000E+00  0.00000000E+00
  0.00000000E+00  0.00000000E+00  0.00000000E+00
  0.00000000E+00  0.00000000E+00  0.00000000E+00
  0.00000000E+00  0.00000000E+00  0.00000000E+00
  0.00000000E+00  0.00000000E+00  0.00000000E+00
  0.00000000E+00  0.00000000E+00  0.00000000E+00
  0.00000000E+00  0.00000000E+00  0.00000000E+00
  0.00000000E+00  0.00000000E+00  0.00000000E+00
  0.00000000E+00  0.00000000E+00  0.00000000E+00
  0.00000000E+00  0.00000000E+00  0.00000000E+00
  0.00000000E+00  0.00000000E+00  0.00000000E+00
  0.00000000E+00  0.00000000E+00  0.00000000E+00
  0.00000000E+00  0.00000000E+00  0.00000000E+00
  0.00000000E+00  0.00000000E+00  0.00000000E+00
  0.00000000E+00  0.00000000E+00  0.00000000E+00
  0.00000000E+00  0.00000000E+00  0.00000000E+00
  0.00000000E+00  0.00000000E+00  0.00000000E+00
  0.00000000E+00  0.00000000E+00  0.00000000E+00
  0.00000000E+00  0.00000000E+00  0.00000000E+00
  0.00000000E+00  0.00000000E+00  0.00000000E+00
  0.00000000E+00  0.00000000E+00  0.00000000E+00
  0.00000000E+00  0.00000000E+00  0.00000000E+00
  0.00000000E+00  0.00000000E+00  0.00000000E+00
  0.00000000E+00  0.00000000E+00  0.00000000E+00
  0.00000000E+00  0.00000000E+00  0.00000000E+00
  0.00000000E+00  0.00000000E+00  0.00000000E+00
  0.00000000E+00  0.00000000E+00  0.00000000E+00
  0.00000000E+00  0.00000000E+00  0.00000000E+00
  0.00000000E+00  0.00000000E+00  0.00000000E+00
  0.00000000E+00  0.00000000E+00  0.00000000E+00
  0.00000000E+00  0.00000000E+00  0.00000000E+00
  0.00000000E+00  0.00000000E+00  0.00000000E+00
  0.00000000E+00  0.00000000E+00  0.00000000E+00
  0.00000000E+00  0.00000000E+00  0.00000000E+00
  0.00000000E+00  0.00000000E+00  0.00000000E+00
  0.00000000E+00  0.00000000E+00  0.00000000E+00
  0.00000000E+00  0.00000000E+00  0.00000000E+00
  0.00000000E+00  0.00000000E+00  0.00000000E+00
  0.00000000E+00  0.00000000E+00  0.00000000E+00
  0.00000000E+00  0.00000000E+00  0.00000000E+00
  0.00000000E+00  0.00000000E+00  0.00000000E+00
  0.00000000E+00  0.00000000E+00  0.00000000E+00
  0.00000000E+00  0.00000000E+00  0.00000000E+00
  0.00000000E+00  0.00000000E+00  0.00000000E+00
  0.00000000E+00  0.00000000E+00  0.00000000E+00
  0.00000000E+00  0.00000000E+00  0.00000000E+00
  0.00000000E+00  0.00000000E+00  0.00000000E+00
  0.00000000E+00  0.00000000E+00  0.00000000E+00
  0.00000000E+00  0.00000000E+00  0.00000000E+00
  0.00000000E+00  0.00000000E+00  0.00000000E+00
  0.00000000E+00  0.00000000E+00  0.00000000E+00
  0.00000000E+00  0.00000000E+00  0.00000000E+00
  0.00000000E+00  0.00000000E+00  0.00000000E+00
  0.00000000E+00  0.00000000E+00  0.00000000E+00
  0.00000000E+00  0.00000000E+00  0.00000000E+00
  0.00000000E+00  0.00000000E+00  0.00000000E+00
  0.00000000E+00  0.00000000E+00  0.00000000E+00
  0.00000000E+00  0.00000000E+00  0.00000000E+00
  0.00000000E+00  0.00000000E+00  0.00000000E+00
  0.00000000E+00  0.00000000E+00  0.00000000E+00
  0.00000000E+00  0.00000000E+00  0.00000000E+00
  0.00000000E+00  0.00000000E+00  0.00000000E+00
  0.00000000E+00  0.00000000E+00  0.00000000E+00
  0.00000000E+00  0.00000000E+00  0.00000000E+00
  0.00000000E+00  0.00000000E+00  0.00000000E+00
  0.00000000E+00  0.00000000E+00  0.00000000E+00
  0.00000000E+00  0.00000000E+00  0.00000000E+00
  0.00000000E+00  0.00000000E+00  0.00000000E+00
  0.00000000E+00  0.00000000E+00  0.00000000E+00
  0.00000000E+00  0.00000000E+00  0.00000000E+00
  0.00000000E+00  0.00000000E+00  0.00000000E+00
  0.00000000E+00  0.00000000E+00  0.00000000E+00
  0.00000000E+00  0.00000000E+00  0.00000000E+00
  0.00000000E+00  0.00000000E+00  0.00000000E+00
  0.00000000E+00  0.00000000E+00  0.00000000E+00
  0.00000000E+00  0.00000000E+00  0.00000000E+00
  0.00000000E+00  0.00000000E+00  0.00000000E+00
  0.00000000E+00  0.00000000E+00  0.00000000E+00
  0.00000000E+00  0.00000000E+00  0.00000000E+00
  0.00000000E+00  0.00000000E+00  0.00000000E+00
  0.00000000E+00  0.00000000E+00  0.00000000E+00
  0.00000000E+00  0.00000000E+00  0.00000000E+00
  0.00000000E+00  0.00000000E+00  0.00000000E+00
