Au Pd Tl H O                            
   1.00000000000000     
     9.3848339692973219    0.0000000000000000    0.0000000000000006
    -0.0000000000000008   13.2721594799999991    0.0000000000000008
     0.0000000000000000    0.0000000000000000   37.5393358771892878
   Au   Pd   Tl   H    O 
    16    32    16     1     1
Selective dynamics
Direct
  0.2500000000000000  0.0000000000000000  0.4062500000000000   F   F   F
  0.2500000000000000  0.0000000000000000  0.5312500000000000   F   F   F
  0.0000000000000000  0.2500000000000000  0.4687500000000000   F   F   F
  0.9973155894087995  0.2431589853506466  0.5955347187222984   T   T   T
  0.0000000000000000  0.3750000000000000  0.5312500000000000   F   F   F
  0.0000000000000000  0.3750000000000000  0.4062500000000000   F   F   F
  0.2390207317475515  0.3665256818726306  0.5909876860634640   T   T   T
  0.2500000000000000  0.3750000000000000  0.4687500000000000   F   F   F
  0.2477472725904803  0.1232435832604111  0.5913775065367091   T   T   T
  0.2500000000000000  0.1250000000000000  0.4687500000000000   F   F   F
  0.0000000000000000  0.1250000000000000  0.4062500000000000   F   F   F
  0.0000000000000000  0.1250000000000000  0.5312500000000000   F   F   F
  0.0000000000000000  0.0000000000000000  0.4687500000000000   F   F   F
  0.9961001716678197  0.0001763094572453  0.6015693913243112   T   T   T
  0.2500000000000000  0.2500000000000000  0.4062500000000000   F   F   F
  0.2500000000000000  0.2500000000000000  0.5312500000000000   F   F   F
  0.2500000000000000  0.5000000000000000  0.4062500000000000   F   F   F
  0.2500000000000000  0.5000000000000000  0.5312500000000000   F   F   F
  0.0000000000000000  0.7500000000000000  0.4687500000000000   F   F   F
  0.9971836847249236  0.7573363259093071  0.5956375824600002   T   T   T
  0.0000000000000000  0.8750000000000000  0.5312500000000000   F   F   F
  0.0000000000000000  0.8750000000000000  0.4062500000000000   F   F   F
  0.2479420759456801  0.8773781933409097  0.5913509549025591   T   T   T
  0.2500000000000000  0.8750000000000000  0.4687500000000000   F   F   F
  0.2382100037070742  0.6333998543687542  0.5909666345133004   T   T   T
  0.2500000000000000  0.6250000000000000  0.4687500000000000   F   F   F
  0.0000000000000000  0.6250000000000000  0.4062500000000000   F   F   F
  0.0000000000000000  0.6250000000000000  0.5312500000000000   F   F   F
  0.0000000000000000  0.5000000000000000  0.4687500000000000   F   F   F
  0.9962322256546940  0.5001930020988965  0.6006265580773018   T   T   T
  0.2500000000000000  0.7500000000000000  0.4062500000000000   F   F   F
  0.2500000000000000  0.7500000000000000  0.5312500000000000   F   F   F
  0.7500000000000000  0.0000000000000000  0.4062500000000000   F   F   F
  0.7500000000000000  0.0000000000000000  0.5312500000000000   F   F   F
  0.5000000000000000  0.2500000000000000  0.4687500000000000   F   F   F
  0.4954073615964703  0.2480096342561708  0.5951042193541340   T   T   T
  0.5000000000000000  0.3750000000000000  0.5312500000000000   F   F   F
  0.5000000000000000  0.3750000000000000  0.4062500000000000   F   F   F
  0.7521390231508747  0.3618242740254374  0.5900363679260252   T   T   T
  0.7500000000000000  0.3750000000000000  0.4687500000000000   F   F   F
  0.7452597699826100  0.1227178700460598  0.5915117940593859   T   T   T
  0.7500000000000000  0.1250000000000000  0.4687500000000000   F   F   F
  0.5000000000000000  0.1250000000000000  0.4062500000000000   F   F   F
  0.5000000000000000  0.1250000000000000  0.5312500000000000   F   F   F
  0.5000000000000000  0.0000000000000000  0.4687500000000000   F   F   F
  0.4967730308845830  0.0002305254871402  0.6015651286324228   T   T   T
  0.7500000000000000  0.2500000000000000  0.4062500000000000   F   F   F
  0.7500000000000000  0.2500000000000000  0.5312500000000000   F   F   F
  0.7500000000000000  0.5000000000000000  0.4062500000000000   F   F   F
  0.7500000000000000  0.5000000000000000  0.5312500000000000   F   F   F
  0.5000000000000000  0.7500000000000000  0.4687500000000000   F   F   F
  0.4951441340698679  0.7520108881312808  0.5950992254721754   T   T   T
  0.5000000000000000  0.8750000000000000  0.5312500000000000   F   F   F
  0.5000000000000000  0.8750000000000000  0.4062500000000000   F   F   F
  0.7451528239286560  0.8772863816080232  0.5915749397826247   T   T   T
  0.7500000000000000  0.8750000000000000  0.4687500000000000   F   F   F
  0.7518239368084352  0.6384928970672448  0.5905355136888701   T   T   T
  0.7500000000000000  0.6250000000000000  0.4687500000000000   F   F   F
  0.5000000000000000  0.6250000000000000  0.4062500000000000   F   F   F
  0.5000000000000000  0.6250000000000000  0.5312500000000000   F   F   F
  0.5000000000000000  0.5000000000000000  0.4687500000000000   F   F   F
  0.4687786818795843  0.5004113178135228  0.6014828140467472   T   T   T
  0.7500000000000000  0.7500000000000000  0.4062500000000000   F   F   F
  0.7500000000000000  0.7500000000000000  0.5312500000000000   F   F   F
  0.7061329255902820  0.4939070779543400  0.6553926884449623   T   T   T
  0.7028901404717800  0.4967039013726833  0.6293666548510330   T   T   T
 
  0.00000000E+00  0.00000000E+00  0.00000000E+00
  0.00000000E+00  0.00000000E+00  0.00000000E+00
  0.00000000E+00  0.00000000E+00  0.00000000E+00
  0.00000000E+00  0.00000000E+00  0.00000000E+00
  0.00000000E+00  0.00000000E+00  0.00000000E+00
  0.00000000E+00  0.00000000E+00  0.00000000E+00
  0.00000000E+00  0.00000000E+00  0.00000000E+00
  0.00000000E+00  0.00000000E+00  0.00000000E+00
  0.00000000E+00  0.00000000E+00  0.00000000E+00
  0.00000000E+00  0.00000000E+00  0.00000000E+00
  0.00000000E+00  0.00000000E+00  0.00000000E+00
  0.00000000E+00  0.00000000E+00  0.00000000E+00
  0.00000000E+00  0.00000000E+00  0.00000000E+00
  0.00000000E+00  0.00000000E+00  0.00000000E+00
  0.00000000E+00  0.00000000E+00  0.00000000E+00
  0.00000000E+00  0.00000000E+00  0.00000000E+00
  0.00000000E+00  0.00000000E+00  0.00000000E+00
  0.00000000E+00  0.00000000E+00  0.00000000E+00
  0.00000000E+00  0.00000000E+00  0.00000000E+00
  0.00000000E+00  0.00000000E+00  0.00000000E+00
  0.00000000E+00  0.00000000E+00  0.00000000E+00
  0.00000000E+00  0.00000000E+00  0.00000000E+00
  0.00000000E+00  0.00000000E+00  0.00000000E+00
  0.00000000E+00  0.00000000E+00  0.00000000E+00
  0.00000000E+00  0.00000000E+00  0.00000000E+00
  0.00000000E+00  0.00000000E+00  0.00000000E+00
  0.00000000E+00  0.00000000E+00  0.00000000E+00
  0.00000000E+00  0.00000000E+00  0.00000000E+00
  0.00000000E+00  0.00000000E+00  0.00000000E+00
  0.00000000E+00  0.00000000E+00  0.00000000E+00
  0.00000000E+00  0.00000000E+00  0.00000000E+00
  0.00000000E+00  0.00000000E+00  0.00000000E+00
  0.00000000E+00  0.00000000E+00  0.00000000E+00
  0.00000000E+00  0.00000000E+00  0.00000000E+00
  0.00000000E+00  0.00000000E+00  0.00000000E+00
  0.00000000E+00  0.00000000E+00  0.00000000E+00
  0.00000000E+00  0.00000000E+00  0.00000000E+00
  0.00000000E+00  0.00000000E+00  0.00000000E+00
  0.00000000E+00  0.00000000E+00  0.00000000E+00
  0.00000000E+00  0.00000000E+00  0.00000000E+00
  0.00000000E+00  0.00000000E+00  0.00000000E+00
  0.00000000E+00  0.00000000E+00  0.00000000E+00
  0.00000000E+00  0.00000000E+00  0.00000000E+00
  0.00000000E+00  0.00000000E+00  0.00000000E+00
  0.00000000E+00  0.00000000E+00  0.00000000E+00
  0.00000000E+00  0.00000000E+00  0.00000000E+00
  0.00000000E+00  0.00000000E+00  0.00000000E+00
  0.00000000E+00  0.00000000E+00  0.00000000E+00
  0.00000000E+00  0.00000000E+00  0.00000000E+00
  0.00000000E+00  0.00000000E+00  0.00000000E+00
  0.00000000E+00  0.00000000E+00  0.00000000E+00
  0.00000000E+00  0.00000000E+00  0.00000000E+00
  0.00000000E+00  0.00000000E+00  0.00000000E+00
  0.00000000E+00  0.00000000E+00  0.00000000E+00
  0.00000000E+00  0.00000000E+00  0.00000000E+00
  0.00000000E+00  0.00000000E+00  0.00000000E+00
  0.00000000E+00  0.00000000E+00  0.00000000E+00
  0.00000000E+00  0.00000000E+00  0.00000000E+00
  0.00000000E+00  0.00000000E+00  0.00000000E+00
  0.00000000E+00  0.00000000E+00  0.00000000E+00
  0.00000000E+00  0.00000000E+00  0.00000000E+00
  0.00000000E+00  0.00000000E+00  0.00000000E+00
  0.00000000E+00  0.00000000E+00  0.00000000E+00
  0.00000000E+00  0.00000000E+00  0.00000000E+00
  0.00000000E+00  0.00000000E+00  0.00000000E+00
  0.00000000E+00  0.00000000E+00  0.00000000E+00
