Au Pd Tl H O
 1.0000000000000000
     9.3848339692973219    0.0000000000000000    0.0000000000000006
    -0.0000000000000008   13.2721594799999991    0.0000000000000008
     0.0000000000000000    0.0000000000000000   37.5393358771892878
Au Pd Tl H O
16 32 16 1 1
Selective dynamics
Cartesian
  2.3462084923243296  0.0000000000000000 15.2503552001081442   F   F   F
  2.3462084923243305  0.0000000000000000 19.9427721847568087   F   F   F
 -0.0000000000000002  3.3180398699999998 17.5965636924324755   F   F   F
 -0.0251927477038409  3.2272448325687648 22.3559778326437417   T   T   T
 -0.0000000000000003  4.9770598049999997 19.9427721847568087   F   F   F
 -0.0000000000000003  4.9770598049999997 15.2503552001081442   F   F   F
  2.2431698826707351  4.8645873033292908 22.1852852464192374   T   T   T
  2.3462084923243300  4.9770598049999997 17.5965636924324755   F   F   F
  2.3250670196079222  1.6357084919188161 22.1999188480961429   T   T   T
  2.3462084923243305  1.6590199350000014 17.5965636924324755   F   F   F
 -0.0000000000000001  1.6590199349999992 15.2503552001081442   F   F   F
 -0.0000000000000001  1.6590199350000006 19.9427721847568087   F   F   F
  0.0000000000000000  0.0000000000000000 17.5965636924324755   F   F   F
 -0.0365992414062930  0.0023400072343520 22.5825154343595322   T   T   T
  2.3462084923243296  3.3180398699999998 15.2503552001081442   F   F   F
  2.3462084923243305  3.3180398699999998 19.9427721847568087   F   F   F
  2.3462084923243292  6.6360797399999996 15.2503552001081442   F   F   F
  2.3462084923243300  6.6360797399999996 19.9427721847568087   F   F   F
 -0.0000000000000006  9.9541196099999993 17.5965636924324755   F   F   F
 -0.0264306512617629 10.0514884974655629 22.3598392690430892   T   T   T
 -0.0000000000000007 11.6131395449999992 19.9427721847568087   F   F   F
 -0.0000000000000007 11.6131395449999992 15.2503552001081442   F   F   F
  2.3268952167531083 11.6447033062948186 22.1989221173837841   T   T   T
  2.3462084923243296 11.6131395449999992 17.5965636924324755   F   F   F
  2.2355613346166128  8.4065838817909189 22.1844949852068503   T   T   T
  2.3462084923243300  8.2950996750000012 17.5965636924324755   F   F   F
 -0.0000000000000005  8.2950996749999995 15.2503552001081442   F   F   F
 -0.0000000000000005  8.2950996749999995 19.9427721847568087   F   F   F
 -0.0000000000000004  6.6360797399999996 17.5965636924324755   F   F   F
 -0.0353599366644634  6.6386412946364857 22.5471221004238878   T   T   T
  2.3462084923243292  9.9541196099999993 15.2503552001081442   F   F   F
  2.3462084923243300  9.9541196099999993 19.9427721847568087   F   F   F
  7.0386254769729906  0.0000000000000000 15.2503552001081442   F   F   F
  7.0386254769729915  0.0000000000000000 19.9427721847568087   F   F   F
  4.6924169846486610  3.3180398699999998 17.5965636924324755   F   F   F
  4.6493158357505298  3.2916234184243578 22.3398171722672423   T   T   T
  4.6924169846486610  4.9770598049999997 19.9427721847568087   F   F   F
  4.6924169846486610  4.9770598049999997 15.2503552001081442   F   F   F
  7.0586998541004480  4.8021894686008189 22.1495733953318386   T   T   T
  7.0386254769729906  4.9770598049999997 17.5965636924324755   F   F   F
  6.9941392052834983  1.6287311422972230 22.2049599125141803   T   T   T
  7.0386254769729915  1.6590199350000014 17.5965636924324755   F   F   F
  4.6924169846486610  1.6590199349999992 15.2503552001081442   F   F   F
  4.6924169846486610  1.6590199350000006 19.9427721847568087   F   F   F
  4.6924169846486610  0.0000000000000000 17.5965636924324755   F   F   F
  4.6621324152763908  0.0030595710295529 22.5823554157371227   T   T   T
  7.0386254769729906  3.3180398699999998 15.2503552001081442   F   F   F
  7.0386254769729915  3.3180398699999998 19.9427721847568087   F   F   F
  7.0386254769729906  6.6360797399999996 15.2503552001081442   F   F   F
  7.0386254769729915  6.6360797399999996 19.9427721847568087   F   F   F
  4.6924169846486610  9.9541196099999993 17.5965636924324755   F   F   F
  4.6468454891171849  9.9808084379747939 22.3396297052552590   T   T   T
  4.6924169846486610 11.6131395449999992 19.9427721847568087   F   F   F
  4.6924169846486610 11.6131395449999992 15.2503552001081442   F   F   F
  6.9931355343234802 11.6434847663338452 22.2073303610280099   T   T   T
  7.0386254769729906 11.6131395449999992 17.5965636924324755   F   F   F
  7.0557428210906421  8.4741795567237368 22.1683109957751121   T   T   T
  7.0386254769729915  8.2950996750000012 17.5965636924324755   F   F   F
  4.6924169846486610  8.2950996749999995 15.2503552001081442   F   F   F
  4.6924169846486610  8.2950996749999995 19.9427721847568087   F   F   F
  4.6924169846486610  6.6360797399999996 17.5965636924324755   F   F   F
  4.3994100977859478  6.6415388156180342 22.5792653808578443   T   T   T
  7.0386254769729906  9.9541196099999993 15.2503552001081442   F   F   F
  7.0386254769729915  9.9541196099999993 19.9427721847568087   F   F   F
  6.6269402669189725  6.5552135069108237 24.6030062629895951   T   T   T
  6.5965072669837488  6.5923333933564567 23.6260062463558818   T   T   T
