Ag In Se O
 1.0000000000000000
    15.1011199803776375    0.0000000000000000    0.0000000000000009
    -4.5609416166787708   14.3958895602532451    0.0000000000000009
     0.0000000000000000    0.0000000000000000   35.6840018030261916
Ag In Se O
16 16 32 1
Selective dynamics
Cartesian
  1.2343618466689210  7.6437547862722424 20.6923346473023990   T   T   T
 -1.1402354041696929  3.5989723900633130 16.7268758451685287   F   F   F
  2.9823056450168037  3.4898919300534468 19.2652685511118236   T   T   T
 -0.0000000000000001  0.0000000000000013 14.4966257324793908   F   F   F
  2.6350445909247160  3.5989723900633104 14.4966257324793908   F   F   F
  7.5345181325400032  0.0505119009030751 18.9405564467112910   T   T   T
 -1.8923316230929628  4.0763957382872773 21.1034565375131784   T   T   T
  3.7752799950944085  0.0000000000000006 16.7268758451685287   F   F   F
 -1.2381396187164575  6.5993634615198635 21.2449326384288426   T   T   T
  3.8526681639759586  2.6838567138600147 16.7078233537158489   F   F   F
  2.7124327598062656  6.2828291039233291 14.5156782239320687   F   F   F
  0.3316094342313222  2.6884766483906555 18.9610993690594718   T   T   T
 -1.0403366817585744  6.3135742612982613 16.7459283366212013   F   F   F
  3.9410413379877482  2.7945069451282647 21.6351960829920280   T   T   T
  0.0998987224111179  2.7146018712349504 14.4775732410267164   F   F   F
  2.7349433133358314  6.3135742612982639 18.9380734664049903   F   F   F
 -1.0992149940088698 14.8081413921150400 20.7271487443696820   T   T   T
 -3.4207062125090784 10.7969171701899356 16.7268758451685287   F   F   F
  0.5979284636660771 10.7863088608557298 19.3312026491973867   T   T   T
 -2.2804708083393854  7.1979447801266234 14.4966257324793908   F   F   F
  0.3545737825853306 10.7969171701899320 14.4966257324793908   F   F   F
  5.2511151011830943  7.2547029395634901 18.9388834168992091   T   T   T
 -3.7822255648601022 10.9836798657326469 20.6098667782472909   T   T   T
  1.4948091867550231  7.1979447801266234 16.7268758451685287   F   F   F
 -3.4277700974414769 13.5265932264773703 21.1855742367287050   T   T   T
  1.5721973556365731  9.8818014939866377 16.7078233537158489   F   F   F
  0.4319619514668802 13.4807738840499525 14.5156782239320687   F   F   F
 -2.0362018976951082  9.9631433023646956 18.9389583455277410   T   T   T
 -3.3208074900979598 13.5115190414248829 16.7459283366212013   F   F   F
  1.6370079447756560 10.0263518228276567 21.6424786911152331   T   T   T
 -2.1805720859282678  9.9125466513615734 14.4775732410267164   F   F   F
  0.4544725049964460 13.5115190414248865 18.9380734664049903   F   F   F
  8.7136870693324280  7.6151066051523086 20.6764904654602866   T   T   T
  6.4103245860191258  3.5989723900633130 16.7268758451685287   F   F   F
 10.4309368497077468  3.5675563481485293 19.2874150483537434   T   T   T
  7.5505599901888187  0.0000000000000013 14.4966257324793908   F   F   F
 10.1856045811135338  3.5989723900633104 14.4966257324793908   F   F   F
 15.1128655226679651  0.0284932382146508 18.9345399477958765   T   T   T
  6.0552717483318732  3.7803253752275792 20.6067450146703628   T   T   T
 11.3258399852832277  0.0000000000000006 16.7268758451685287   F   F   F
  6.3941034656035836  6.3444099988165936 21.1634031557867885   T   T   T
 11.4032281541647773  2.6838567138600147 16.7078233537158489   F   F   F
 10.2629927499950853  6.2828291039233291 14.5156782239320687   F   F   F
  7.7759924820426534  2.7220938768057517 18.9406842792168995   T   T   T
  6.5102233084302448  6.3135742612982613 16.7459283366212013   F   F   F
 11.0841485526182275  2.8523709371959880 21.7645248533967823   T   T   T
  7.6504587125999368  2.7146018712349504 14.4775732410267164   F   F   F
 10.2855033035246493  6.3135742612982639 18.9380734664049903   F   F   F
  6.5090477496664736 14.8810454738282445 20.6657530581552997   T   T   T
  4.1298537776797408 10.7969171701899356 16.7268758451685287   F   F   F
  8.1393723723758171 10.7698595742014511 19.3162882197127530   T   T   T
  5.2700891818494338  7.1979447801266234 14.4966257324793926   F   F   F
  7.9051337727741497 10.7969171701899320 14.4966257324793926   F   F   F
 12.7863578942386127  7.3002045314340513 18.9155837945643199   T   T   T
  3.7521298400438496 11.0029710964248437 20.6171555646807825   T   T   T
  9.0453691769438418  7.1979447801266234 16.7268758451685287   F   F   F
  4.1490180652390976 13.5516502896388822 21.1531361269365803   T   T   T
  9.1227573458253914  9.8818014939866377 16.7078233537158489   F   F   F
  7.9825219416556994 13.4807738840499525 14.5156782239320705   F   F   F
  5.4872108964039112  9.9339163550872023 18.9726686791628403   T   T   T
  4.2297525000908589 13.5115190414248829 16.7459283366212013   F   F   F
  9.2008046909280647  9.9849756739850832 21.6106229330903297   T   T   T
  5.3699879042605518  9.9125466513615734 14.4775732410267182   F   F   F
  8.0050324951852652 13.5115190414248865 18.9380734664049903   F   F   F
 -0.1635804639680446  2.9334922574837035 20.7009059065823280   T   T   T
