Ag P Pd                                 
   1.00000000000000     
    11.9853458100000001    0.0000000000000000    0.0000000000000007
    -0.0000000000000007   11.9853458100000001    0.0000000000000007
     0.0000000000000000    0.0000000000000000   28.2068709599999998
   Ag   P    Pd
     9     9    45
Selective dynamics
Direct
  0.1666572029539637  0.1666594786182287  0.5854261731649544   T   T   T
  0.0000000000000000  0.0000000000000000  0.4600769865098968   F   F   F
  0.0000021931800518  0.0000032916737069  0.5815872761000804   T   T   T
  0.1666666666666643  0.0000000000000000  0.5099595065099010   F   F   F
  0.0000000000000000  0.1666666666666643  0.5099595065099010   F   F   F
  0.1666666666666643  0.0000000000000000  0.4101944665098998   F   F   F
  0.0000000000000000  0.1666666666666643  0.4101944665098998   F   F   F
  0.1666605602927405  0.5000014386539533  0.5854449159462334   T   T   T
  0.0000000000000000  0.3333333333333357  0.4600769865098968   F   F   F
  0.0000027023766194  0.3333404993385045  0.5815959453440556   T   T   T
  0.1666666666666643  0.3333333333333357  0.5099595065099010   F   F   F
  0.0000000000000000  0.5000000000000000  0.5099595065099010   F   F   F
  0.1666666666666643  0.3333333333333357  0.4101944665098998   F   F   F
  0.0000000000000000  0.5000000000000000  0.4101944665098998   F   F   F
  0.1666602152165382  0.8333485893525960  0.5854366909867963   T   T   T
  0.0000000000000000  0.6666666666666643  0.4600769865098968   F   F   F
  0.0000026139252611  0.6666691643807852  0.5816051585031090   T   T   T
  0.1666666666666643  0.6666666666666643  0.5099595065099010   F   F   F
  0.0000000000000000  0.8333333333333357  0.5099595065099010   F   F   F
  0.1666666666666643  0.6666666666666643  0.4101944665098998   F   F   F
  0.0000000000000000  0.8333333333333357  0.4101944665098998   F   F   F
  0.4999941246188797  0.1666586184352354  0.5854444405632648   T   T   T
  0.3333333333333357  0.0000000000000000  0.4600769865098968   F   F   F
  0.3333411296227808  0.0000027566524992  0.5815955391122785   T   T   T
  0.5000000000000000  0.0000000000000000  0.5099595065099010   F   F   F
  0.3333333333333357  0.1666666666666643  0.5099595065099010   F   F   F
  0.5000000000000000  0.0000000000000000  0.4101944665098998   F   F   F
  0.3333333333333357  0.1666666666666643  0.4101944665098998   F   F   F
  0.4999909644932004  0.5000032382158963  0.5854617611783937   T   T   T
  0.3333333333333357  0.3333333333333357  0.4600769865098968   F   F   F
  0.3333405158684641  0.3333400758336893  0.5816037710054118   T   T   T
  0.5000000000000000  0.3333333333333357  0.5099595065099010   F   F   F
  0.3333333333333357  0.5000000000000000  0.5099595065099010   F   F   F
  0.5000000000000000  0.3333333333333357  0.4101944665098998   F   F   F
  0.3333333333333357  0.5000000000000000  0.4101944665098998   F   F   F
  0.4999888602222029  0.8333441682786642  0.5854536791902234   T   T   T
  0.3333333333333357  0.6666666666666643  0.4600769865098968   F   F   F
  0.3333399802741042  0.6666696029103321  0.5816129635284781   T   T   T
  0.5000000000000000  0.6666666666666643  0.5099595065099010   F   F   F
  0.3333333333333357  0.8333333333333357  0.5099595065099010   F   F   F
  0.5000000000000000  0.6666666666666643  0.4101944665098998   F   F   F
  0.3333333333333357  0.8333333333333357  0.4101944665098998   F   F   F
  0.8333668780890306  0.1666611066451580  0.5854362726324069   T   T   T
  0.6666666666666643  0.0000000000000000  0.4600769865098968   F   F   F
  0.6666692542534562  0.0000028617792367  0.5816041325313890   T   T   T
  0.8333333333333357  0.0000000000000000  0.5099595065099010   F   F   F
  0.6666666666666643  0.1666666666666643  0.5099595065099010   F   F   F
  0.8333333333333357  0.0000000000000000  0.4101944665098998   F   F   F
  0.6666666666666643  0.1666666666666643  0.4101944665098998   F   F   F
  0.8333604731717799  0.4999913727131116  0.5854538483949980   T   T   T
  0.6666666666666643  0.3333333333333357  0.4600769865098968   F   F   F
  0.6666695418194521  0.3333393842042085  0.5816117677143353   T   T   T
  0.8333333333333357  0.3333333333333357  0.5099595065099010   F   F   F
  0.6666666666666643  0.5000000000000000  0.5099595065099010   F   F   F
  0.8333333333333357  0.3333333333333357  0.4101944665098998   F   F   F
  0.6666666666666643  0.5000000000000000  0.4101944665098998   F   F   F
  0.8333536455408677  0.8333554346204366  0.5854456049374548   T   T   T
  0.6666666666666643  0.6666666666666643  0.4600769865098968   F   F   F
  0.6666689252019040  0.6666697781461366  0.5816199875890646   T   T   T
  0.8333333333333357  0.6666666666666643  0.5099595065099010   F   F   F
  0.6666666666666643  0.8333333333333357  0.5099595065099010   F   F   F
  0.8333333333333357  0.6666666666666643  0.4101944665098998   F   F   F
  0.6666666666666643  0.8333333333333357  0.4101944665098998   F   F   F
 
  0.00000000E+00  0.00000000E+00  0.00000000E+00
  0.00000000E+00  0.00000000E+00  0.00000000E+00
  0.00000000E+00  0.00000000E+00  0.00000000E+00
  0.00000000E+00  0.00000000E+00  0.00000000E+00
  0.00000000E+00  0.00000000E+00  0.00000000E+00
  0.00000000E+00  0.00000000E+00  0.00000000E+00
  0.00000000E+00  0.00000000E+00  0.00000000E+00
  0.00000000E+00  0.00000000E+00  0.00000000E+00
  0.00000000E+00  0.00000000E+00  0.00000000E+00
  0.00000000E+00  0.00000000E+00  0.00000000E+00
  0.00000000E+00  0.00000000E+00  0.00000000E+00
  0.00000000E+00  0.00000000E+00  0.00000000E+00
  0.00000000E+00  0.00000000E+00  0.00000000E+00
  0.00000000E+00  0.00000000E+00  0.00000000E+00
  0.00000000E+00  0.00000000E+00  0.00000000E+00
  0.00000000E+00  0.00000000E+00  0.00000000E+00
  0.00000000E+00  0.00000000E+00  0.00000000E+00
  0.00000000E+00  0.00000000E+00  0.00000000E+00
  0.00000000E+00  0.00000000E+00  0.00000000E+00
  0.00000000E+00  0.00000000E+00  0.00000000E+00
  0.00000000E+00  0.00000000E+00  0.00000000E+00
  0.00000000E+00  0.00000000E+00  0.00000000E+00
  0.00000000E+00  0.00000000E+00  0.00000000E+00
  0.00000000E+00  0.00000000E+00  0.00000000E+00
  0.00000000E+00  0.00000000E+00  0.00000000E+00
  0.00000000E+00  0.00000000E+00  0.00000000E+00
  0.00000000E+00  0.00000000E+00  0.00000000E+00
  0.00000000E+00  0.00000000E+00  0.00000000E+00
  0.00000000E+00  0.00000000E+00  0.00000000E+00
  0.00000000E+00  0.00000000E+00  0.00000000E+00
  0.00000000E+00  0.00000000E+00  0.00000000E+00
  0.00000000E+00  0.00000000E+00  0.00000000E+00
  0.00000000E+00  0.00000000E+00  0.00000000E+00
  0.00000000E+00  0.00000000E+00  0.00000000E+00
  0.00000000E+00  0.00000000E+00  0.00000000E+00
  0.00000000E+00  0.00000000E+00  0.00000000E+00
  0.00000000E+00  0.00000000E+00  0.00000000E+00
  0.00000000E+00  0.00000000E+00  0.00000000E+00
  0.00000000E+00  0.00000000E+00  0.00000000E+00
  0.00000000E+00  0.00000000E+00  0.00000000E+00
  0.00000000E+00  0.00000000E+00  0.00000000E+00
  0.00000000E+00  0.00000000E+00  0.00000000E+00
  0.00000000E+00  0.00000000E+00  0.00000000E+00
  0.00000000E+00  0.00000000E+00  0.00000000E+00
  0.00000000E+00  0.00000000E+00  0.00000000E+00
  0.00000000E+00  0.00000000E+00  0.00000000E+00
  0.00000000E+00  0.00000000E+00  0.00000000E+00
  0.00000000E+00  0.00000000E+00  0.00000000E+00
  0.00000000E+00  0.00000000E+00  0.00000000E+00
  0.00000000E+00  0.00000000E+00  0.00000000E+00
  0.00000000E+00  0.00000000E+00  0.00000000E+00
  0.00000000E+00  0.00000000E+00  0.00000000E+00
  0.00000000E+00  0.00000000E+00  0.00000000E+00
  0.00000000E+00  0.00000000E+00  0.00000000E+00
  0.00000000E+00  0.00000000E+00  0.00000000E+00
  0.00000000E+00  0.00000000E+00  0.00000000E+00
  0.00000000E+00  0.00000000E+00  0.00000000E+00
  0.00000000E+00  0.00000000E+00  0.00000000E+00
  0.00000000E+00  0.00000000E+00  0.00000000E+00
  0.00000000E+00  0.00000000E+00  0.00000000E+00
  0.00000000E+00  0.00000000E+00  0.00000000E+00
  0.00000000E+00  0.00000000E+00  0.00000000E+00
  0.00000000E+00  0.00000000E+00  0.00000000E+00
