Ag P Pd
 1.0000000000000000
    11.9853458100000001    0.0000000000000000    0.0000000000000007
    -0.0000000000000007   11.9853458100000001    0.0000000000000007
     0.0000000000000000    0.0000000000000000   28.2068709599999998
Ag P Pd
9 9 45
Selective dynamics
Cartesian
  1.9974442091306415  1.9974714837537493 16.5130405230705151   T   T   T
  0.0000000000000000  0.0000000000000000 12.9773321901504151   F   F   F
  0.0000262860213525  0.0000394518476696 16.4047572489328672   T   T   T
  1.9975576349999999  0.0000000000000000 14.3843619949500372   F   F   F
 -0.0000000000000001  1.9975576349999999 14.3843619949500372   F   F   F
  1.9975576349999999  0.0000000000000000 11.5703023853507947   F   F   F
 -0.0000000000000001  1.9975576349999999 11.5703023853507947   F   F   F
  1.9974844479968181  5.9926901477651251 16.5135691982835056   T   T   T
 -0.0000000000000002  3.9951152699999999 12.9773321901504151   F   F   F
  0.0000323889182707  3.9952011570500905 16.4050017811790099   T   T   T
  1.9975576349999997  3.9951152699999999 14.3843619949500372   F   F   F
 -0.0000000000000004  5.9926729050000000 14.3843619949500372   F   F   F
  1.9975576349999997  3.9951152699999999 11.5703023853507947   F   F   F
 -0.0000000000000004  5.9926729050000000 11.5703023853507947   F   F   F
  1.9974803121392379  9.9879710236665549 16.5133371979139270   T   T   T
 -0.0000000000000005  7.9902305399999998 12.9773321901504151   F   F   F
  0.0000313287981721  7.9902604759674043 16.4052616555675854   T   T   T
  1.9975576349999995  7.9902305399999998 14.3843619949500372   F   F   F
 -0.0000000000000006  9.9877881750000004 14.3843619949500372   F   F   F
  1.9975576349999995  7.9902305399999998 11.5703023853507947   F   F   F
 -0.0000000000000006  9.9877881750000004 11.5703023853507947   F   F   F
  5.9926024865255201  1.9974611741631423 16.5135557892174916   T   T   T
  3.9951152699999999  0.0000000000000000 12.9773321901504151   F   F   F
  3.9952087112250898  0.0000330394334469 16.4049903226517131   T   T   T
  5.9926729050000000  0.0000000000000000 14.3843619949500372   F   F   F
  3.9951152699999999  1.9975576349999999 14.3843619949500372   F   F   F
  5.9926729050000000  0.0000000000000000 11.5703023853507947   F   F   F
  3.9951152699999999  1.9975576349999999 11.5703023853507947   F   F   F
  5.9925646113264790  5.9927117161373014 16.5140443495732256   T   T   T
  3.9951152699999994  3.9951152699999999 12.9773321901504151   F   F   F
  3.9952013551673673  3.9951960811983587 16.4052225185990324   T   T   T
  5.9926729049999992  3.9951152699999999 14.3843619949500372   F   F   F
  3.9951152699999994  5.9926729050000000 14.3843619949500372   F   F   F
  5.9926729049999992  3.9951152699999999 11.5703023853507947   F   F   F
  3.9951152699999994  5.9926729050000000 11.5703023853507947   F   F   F
  5.9925393909108422  9.9879180355666310 16.5138163819759143   T   T   T
  3.9951152699999994  7.9902305399999998 12.9773321901504151   F   F   F
  3.9951949358837311  7.9902657318956765 16.4054818109109988   T   T   T
  5.9926729049999992  7.9902305399999998 14.3843619949500372   F   F   F
  3.9951152699999994  9.9877881750000004 14.3843619949500372   F   F   F
  5.9926729049999992  7.9902305399999998 11.5703023853507947   F   F   F
  3.9951152699999994  9.9877881750000004 11.5703023853507947   F   F   F
  9.9881902204971382  1.9974909962195186 16.5133253974457261   T   T   T
  7.9902305399999998  0.0000000000000000 12.9773321901504151   F   F   F
  7.9902615531224521  0.0000342994137554 16.4052327161155631   T   T   T
  9.9877881750000004  0.0000000000000000 14.3843619949500372   F   F   F
  7.9902305399999998  1.9975576349999999 14.3843619949500372   F   F   F
  9.9877881750000004  0.0000000000000000 11.5703023853507947   F   F   F
  7.9902305399999998  1.9975576349999999 11.5703023853507947   F   F   F
  9.9881134553489872  5.9925695039832414 16.5138211547130709   T   T   T
  7.9902305399999998  3.9951152699999999 12.9773321901504151   F   F   F
  7.9902649997003730  3.9951877917798844 16.4054480807356526   T   T   T
  9.9877881750000004  3.9951152699999999 14.3843619949500372   F   F   F
  7.9902305399999998  5.9926729050000000 14.3843619949500372   F   F   F
  9.9877881750000004  3.9951152699999999 11.5703023853507947   F   F   F
  7.9902305399999998  5.9926729050000000 11.5703023853507947   F   F   F
  9.9880316238314961  9.9880530665688045 16.5135886325700199   T   T   T
  7.9902305399999989  7.9902305399999998 12.9773321901504168   F   F   F
  7.9902576093258233  7.9902678321574578 16.4056799376815547   T   T   T
  9.9877881749999986  7.9902305399999998 14.3843619949500390   F   F   F
  7.9902305399999989  9.9877881750000004 14.3843619949500390   F   F   F
  9.9877881749999986  7.9902305399999998 11.5703023853507965   F   F   F
  7.9902305399999989  9.9877881750000004 11.5703023853507965   F   F   F
