Ag Te O                                 
   1.00000000000000     
     9.7061987978304263    0.0000000000000000    0.0000000000000006
    -4.7967556401228650    6.9464870236410938    0.0000000000000005
     0.0000000000000000    0.0000000000000000   39.0961864800002274
   Ag   Te   O 
    16     8     1
Selective dynamics
Direct
  0.1659106299999991  0.6672079699999998  0.5311769925000007   F   F   F
  0.1659106299999991  0.1672079699999998  0.4688230074999993   F   F   F
  0.3764399350000005  0.2440301999999974  0.5317360800000017   F   F   F
  0.1263206799999992  0.7493386199999961  0.4061782100000002   F   F   F
  0.3764399350000005  0.7440301999999974  0.4682639199999983   F   F   F
  0.2026155445032600  0.3591433085507916  0.5736990979415921   T   T   T
  0.3767218549999996  0.2499867399999971  0.4058968000000007   F   F   F
  0.5293630769551072  0.7513635472711186  0.5934474904935314   T   T   T
  0.0006896900000015  0.0059130100000004  0.5325161100000031   F   F   F
  0.0006896900000015  0.5059130100000004  0.4674838899999969   F   F   F
  0.4955672099999973  0.0002234700000017  0.4050921474999996   F   F   F
  0.5368771537995016  0.4466416221348197  0.5942454823547152   T   T   T
  0.6659106299999991  0.6672079699999998  0.5311769925000007   F   F   F
  0.6659106299999991  0.1672079699999998  0.4688230074999993   F   F   F
  0.8764399350000005  0.2440301999999974  0.5317360800000017   F   F   F
  0.6263206799999992  0.7493386199999961  0.4061782100000002   F   F   F
  0.8764399350000005  0.7440301999999974  0.4682639199999983   F   F   F
  0.7846016026100173  0.2671621798035346  0.5993852733777132   T   T   T
  0.8767218549999996  0.2499867399999971  0.4058968000000007   F   F   F
  0.8976731439142256  0.6665762517585989  0.5739213530052112   T   T   T
  0.5006896900000015  0.0059130100000004  0.5325161100000031   F   F   F
  0.5006896900000015  0.5059130100000004  0.4674838899999969   F   F   F
  0.9955672099999973  0.0002234700000017  0.4050921474999996   F   F   F
  0.0982182345502594  0.5710487327910627  0.6038067314929592   T   T   T
  0.5433722310775906  0.0133281215982706  0.5836862459646284   T   T   T
 
  0.00000000E+00  0.00000000E+00  0.00000000E+00
  0.00000000E+00  0.00000000E+00  0.00000000E+00
  0.00000000E+00  0.00000000E+00  0.00000000E+00
  0.00000000E+00  0.00000000E+00  0.00000000E+00
  0.00000000E+00  0.00000000E+00  0.00000000E+00
  0.00000000E+00  0.00000000E+00  0.00000000E+00
  0.00000000E+00  0.00000000E+00  0.00000000E+00
  0.00000000E+00  0.00000000E+00  0.00000000E+00
  0.00000000E+00  0.00000000E+00  0.00000000E+00
  0.00000000E+00  0.00000000E+00  0.00000000E+00
  0.00000000E+00  0.00000000E+00  0.00000000E+00
  0.00000000E+00  0.00000000E+00  0.00000000E+00
  0.00000000E+00  0.00000000E+00  0.00000000E+00
  0.00000000E+00  0.00000000E+00  0.00000000E+00
  0.00000000E+00  0.00000000E+00  0.00000000E+00
  0.00000000E+00  0.00000000E+00  0.00000000E+00
  0.00000000E+00  0.00000000E+00  0.00000000E+00
  0.00000000E+00  0.00000000E+00  0.00000000E+00
  0.00000000E+00  0.00000000E+00  0.00000000E+00
  0.00000000E+00  0.00000000E+00  0.00000000E+00
  0.00000000E+00  0.00000000E+00  0.00000000E+00
  0.00000000E+00  0.00000000E+00  0.00000000E+00
  0.00000000E+00  0.00000000E+00  0.00000000E+00
  0.00000000E+00  0.00000000E+00  0.00000000E+00
  0.00000000E+00  0.00000000E+00  0.00000000E+00
