Ag Te O
 1.0000000000000000
     9.7061987978304263    0.0000000000000000    0.0000000000000006
    -4.7967556401228650    6.9464870236410938    0.0000000000000005
     0.0000000000000000    0.0000000000000000   39.0961864800002274
Ag Te O
16 8 1
Selective dynamics
Cartesian
 -1.5900720357791396  4.6347515056749202 20.7669947526656848   F   F   F
  0.8083057842822928  1.1615079938543722 18.3291917273345462   F   F   F
  2.4832476063420525  1.6951526176765401 20.7888529418243166   F   F   F
 -2.3683006194897605  5.2052710001431208 15.8800190422726928   F   F   F
  0.0848697862806209  5.1683961294970873 18.3073335381759108   F   F   F
  0.2439040635758869  2.4947843324756187 22.4294469165324415   T   T   T
  2.4574119110665231  1.7365296454923325 15.8690169844353566   F   F   F
  1.5339959280020445  5.2193371311557675 23.2015337544231279   T   T   T
 -0.0216689958187281  0.0410746472356615 20.8193491401643129   F   F   F
 -2.4200468158801605  3.5143181590562085 18.2768373398359145   F   F   F
  4.8090019269632815  0.0015523314551692 15.8375581402437557   F   F   F
  3.0686056647025164  3.1025902323775529 23.2327321930375916   T   T   T
  3.2630273631360733  4.6347515056749202 20.7669947526656848   F   F   F
  5.6614051831975063  1.1615079938543722 18.3291917273345462   F   F   F
  7.3363470052572657  1.6951526176765401 20.7888529418243166   F   F   F
  2.4847987794254527  5.2052710001431208 15.8800190422726928   F   F   F
  4.9379691851958345  5.1683961294970873 18.3073335381759108   F   F   F
  6.3339874392290749  1.8558386152129325 23.4336784213409999   T   T   T
  7.3105113099817363  1.7365296454923325 15.8690169844353566   F   F   F
  5.5155905951098951  4.6303632831084505 22.4381362419458874   T   T   T
  4.8314304030964852  0.0410746472356615 20.8193491401643129   F   F   F
  2.4330525830350527  3.5143181590562085 18.2768373398359145   F   F   F
  9.6621013258784956  0.0015523314551692 15.8375581402437557   F   F   F
  7.9203432781466390  3.9667826121998235 23.6065405723280861   T   T   T
  5.2101471536109898  0.0925836237319038 22.8199063180445165   T   T   T
