Cu Ag S O                               
   1.00000000000000     
     8.8942792555729042    0.0000000000000000    0.0000000000000005
    -0.0000000000000005    8.8942792555729042    0.0000000000000005
     0.0000000000000000    0.0000000000000000   35.8281553381818583
   Cu   Ag   S    O 
     8    24    16     1
Selective dynamics
Direct
  0.0000000000000000  0.0000000000000000  0.4482816066666686   F   F   F
  0.0000000000000000  0.0000000000000000  0.5517183933333314   F   F   F
  0.5000000000000000  0.0000000000000000  0.3649482733333329   F   F   F
  0.5000000000000000  0.0000000000000000  0.4683850600000028   F   F   F
  0.5236272442268231  0.5090208847760991  0.6222828302422627   T   T   T
  0.5000000000000000  0.5000000000000000  0.3850517266666671   F   F   F
  0.0000000000000000  0.5000000000000000  0.5316149399999972   F   F   F
  0.9906690920536079  0.4149400089893192  0.6435612623850702   T   T   T
  0.7189833400000012  0.8456449700000022  0.4232703999999998   F   F   F
  0.2810166599999988  0.1543550299999978  0.4232703999999998   F   F   F
  0.8456449700000022  0.2810166599999988  0.5767296000000002   F   F   F
  0.7810166599999988  0.1543550299999978  0.4933962666666645   F   F   F
  0.6543550299999978  0.7189833400000012  0.3399370666666641   F   F   F
  0.6543550299999978  0.2189833400000012  0.4100629333333359   F   F   F
  0.8246099005176646  0.9649314243842184  0.6283750611423145   T   T   T
  0.2189833400000012  0.8456449700000022  0.4933962666666645   F   F   F
  0.8456449700000022  0.7810166599999988  0.5066037333333355   F   F   F
  0.0000000000000000  0.2500000000000000  0.3750000000000000   F   F   F
  0.7500000000000000  0.5000000000000000  0.4583333333333357   F   F   F
  0.0000000000000000  0.7500000000000000  0.3750000000000000   F   F   F
  0.2189833400000012  0.3456449700000022  0.5899370666666641   F   F   F
  0.7810166599999988  0.6543550299999978  0.5899370666666641   F   F   F
  0.3456449700000022  0.7810166599999988  0.4100629333333359   F   F   F
  0.2686591401119998  0.6772614886972477  0.6477702434966446   T   T   T
  0.1543550299999978  0.2189833400000012  0.5066037333333355   F   F   F
  0.1543550299999978  0.7189833400000012  0.5767296000000002   F   F   F
  0.2500000000000000  0.5000000000000000  0.4583333333333357   F   F   F
  0.7129136925586792  0.2591012691196397  0.6489936017729647   T   T   T
  0.3456449700000022  0.2810166599999988  0.3399370666666641   F   F   F
  0.5000000000000000  0.7500000000000000  0.5416666666666643   F   F   F
  0.1267939708276984  0.0690548615131235  0.6182379534640461   T   T   T
  0.5000000000000000  0.2500000000000000  0.5416666666666643   F   F   F
  0.5123409999999993  0.7508110899999991  0.4700167499999992   F   F   F
  0.7491889100000009  0.0123409999999993  0.3633165833333365   F   F   F
  0.7508110899999991  0.9876590000000007  0.5533500833333349   F   F   F
  0.7491889100000009  0.5123409999999993  0.3866834166666635   F   F   F
  0.7508110899999991  0.4876590000000007  0.5299832500000008   F   F   F
  0.0123409999999993  0.7508110899999991  0.4466499166666651   F   F   F
  0.4876590000000007  0.2491889100000009  0.4700167499999992   F   F   F
  0.9876590000000007  0.2491889100000009  0.4466499166666651   F   F   F
  0.9712794455518434  0.1886006114173995  0.6673113138287263   T   T   T
  0.2491889100000009  0.5123409999999993  0.5299832500000008   F   F   F
  0.2508110899999991  0.4876590000000007  0.3866834166666635   F   F   F
  0.2491889100000009  0.0123409999999993  0.5533500833333349   F   F   F
  0.2508110899999991  0.9876590000000007  0.3633165833333365   F   F   F
  0.4823784146365568  0.2703315726786641  0.6128248561769780   T   T   T
  0.9969009733383913  0.6609585323755169  0.6389727035624233   T   T   T
  0.5132169760501171  0.7557216517408136  0.6233332509438370   T   T   T
  0.6096593590799273  0.8522291366055654  0.6515984950688960   T   T   T
 
  0.00000000E+00  0.00000000E+00  0.00000000E+00
  0.00000000E+00  0.00000000E+00  0.00000000E+00
  0.00000000E+00  0.00000000E+00  0.00000000E+00
  0.00000000E+00  0.00000000E+00  0.00000000E+00
  0.00000000E+00  0.00000000E+00  0.00000000E+00
  0.00000000E+00  0.00000000E+00  0.00000000E+00
  0.00000000E+00  0.00000000E+00  0.00000000E+00
  0.00000000E+00  0.00000000E+00  0.00000000E+00
  0.00000000E+00  0.00000000E+00  0.00000000E+00
  0.00000000E+00  0.00000000E+00  0.00000000E+00
  0.00000000E+00  0.00000000E+00  0.00000000E+00
  0.00000000E+00  0.00000000E+00  0.00000000E+00
  0.00000000E+00  0.00000000E+00  0.00000000E+00
  0.00000000E+00  0.00000000E+00  0.00000000E+00
  0.00000000E+00  0.00000000E+00  0.00000000E+00
  0.00000000E+00  0.00000000E+00  0.00000000E+00
  0.00000000E+00  0.00000000E+00  0.00000000E+00
  0.00000000E+00  0.00000000E+00  0.00000000E+00
  0.00000000E+00  0.00000000E+00  0.00000000E+00
  0.00000000E+00  0.00000000E+00  0.00000000E+00
  0.00000000E+00  0.00000000E+00  0.00000000E+00
  0.00000000E+00  0.00000000E+00  0.00000000E+00
  0.00000000E+00  0.00000000E+00  0.00000000E+00
  0.00000000E+00  0.00000000E+00  0.00000000E+00
  0.00000000E+00  0.00000000E+00  0.00000000E+00
  0.00000000E+00  0.00000000E+00  0.00000000E+00
  0.00000000E+00  0.00000000E+00  0.00000000E+00
  0.00000000E+00  0.00000000E+00  0.00000000E+00
  0.00000000E+00  0.00000000E+00  0.00000000E+00
  0.00000000E+00  0.00000000E+00  0.00000000E+00
  0.00000000E+00  0.00000000E+00  0.00000000E+00
  0.00000000E+00  0.00000000E+00  0.00000000E+00
  0.00000000E+00  0.00000000E+00  0.00000000E+00
  0.00000000E+00  0.00000000E+00  0.00000000E+00
  0.00000000E+00  0.00000000E+00  0.00000000E+00
  0.00000000E+00  0.00000000E+00  0.00000000E+00
  0.00000000E+00  0.00000000E+00  0.00000000E+00
  0.00000000E+00  0.00000000E+00  0.00000000E+00
  0.00000000E+00  0.00000000E+00  0.00000000E+00
  0.00000000E+00  0.00000000E+00  0.00000000E+00
  0.00000000E+00  0.00000000E+00  0.00000000E+00
  0.00000000E+00  0.00000000E+00  0.00000000E+00
  0.00000000E+00  0.00000000E+00  0.00000000E+00
  0.00000000E+00  0.00000000E+00  0.00000000E+00
  0.00000000E+00  0.00000000E+00  0.00000000E+00
  0.00000000E+00  0.00000000E+00  0.00000000E+00
  0.00000000E+00  0.00000000E+00  0.00000000E+00
  0.00000000E+00  0.00000000E+00  0.00000000E+00
  0.00000000E+00  0.00000000E+00  0.00000000E+00
