Cu Ag S O
 1.0000000000000000
     8.8942792555729042    0.0000000000000000    0.0000000000000005
    -0.0000000000000005    8.8942792555729042    0.0000000000000005
     0.0000000000000000    0.0000000000000000   35.8281553381818583
Cu Ag S O
8 24 16 1
Selective dynamics
Cartesian
  0.0000000000000000  0.0000000000000000 16.0611030389030738   F   F   F
  0.0000000000000000  0.0000000000000000 19.7670522992787880   F   F   F
  4.4471396277864521  0.0000000000000000 13.0754234273879195   F   F   F
  4.4471396277864521  0.0000000000000000 16.7813726877636320   F   F   F
  4.6572869359794247  4.5273738961174210 22.2952459062031849   T   T   T
  4.4471396277864521  4.4471396277864521 13.7956930762484742   F   F   F
 -0.0000000000000003  4.4471396277864521 19.0467826504182298   F   F   F
 -0.0829917009832573  3.6905923142609360 23.0576128783686585   T   T   T
  6.3948386060645221  7.5214025142505703 15.1649976412543737   F   F   F
  2.4994406495083821  1.3728767413223337 15.1649976412543737   F   F   F
  7.5214025142505703  2.4994406495083812 20.6631576969274846   F   F   F
  6.9465802772948333  1.3728767413223337 17.6774780854123357   F   F   F
  5.8200163691087861  6.3948386060645230 12.1793180297392176   F   F   F
  5.8200163691087861  1.9476989782780709 14.6917984738971779   F   F   F
  7.3343107321142771 -0.3119097046219395 22.5135193012464008   T   T   T
  1.9476989782780705  7.5214025142505703 17.6774780854123357   F   F   F
  7.5214025142505703  6.9465802772948333 18.1506772527695297   F   F   F
 -0.0000000000000001  2.2235698138932261 13.4355582518181986   F   F   F
  6.6707094416796782  4.4471396277864521 16.4212378633333493   F   F   F
 -0.0000000000000004  6.6707094416796782 13.4355582518181986   F   F   F
  1.9476989782780707  3.0742628864641182 21.1363568642846857   F   F   F
  6.9465802772948333  5.8200163691087861 21.1363568642846857   F   F   F
  3.0742628864641177  6.9465802772948333 14.6917984738971779   F   F   F
  2.3895294167181986  6.0237528095183430 23.2084129074497163   T   T   T
  1.3728767413223335  1.9476989782780709 18.1506772527695297   F   F   F
  1.3728767413223333  6.3948386060645230 20.6631576969274846   F   F   F
  2.2235698138932256  4.4471396277864521 16.4212378633333529   F   F   F
  6.3408534667385634  2.3045190430234532 23.2522435778078638   T   T   T
  3.0742628864641182  2.4994406495083812 12.1793180297392176   F   F   F
  4.4471396277864521  6.6707094416796782 19.4069174748485089   F   F   F
  1.1277409844645430  0.6141932222526520 22.1503254326693870   T   T   T
  4.4471396277864521  2.2235698138932261 19.4069174748485089   F   F   F
  4.5569039280794783  6.6779235026410788 16.8398331305473903   F   F   F
  6.6634953807182775  0.1097643002930256 13.0169629846041612   F   F   F
  6.6779235026410779  8.7845149552798780 19.8255127420625428   F   F   F
  6.6634953807182775  4.5569039280794783 13.8541535190322342   F   F   F
  6.6779235026410788  4.3373753274934259 18.9883222076344715   F   F   F
  0.1097643002930252  6.6779235026410788 16.0026425961193155   F   F   F
  4.3373753274934259  2.2163557529318254 16.8398331305473903   F   F   F
  8.7845149552798780  2.2163557529318254 16.0026425961193155   F   F   F
 -0.2554486316367928  1.6774665057181330 23.9085334107818746   T   T   T
  2.2163557529318250  4.5569039280794783 18.9883222076344715   F   F   F
  2.2307838748546263  4.3373753274934259 13.8541535190322342   F   F   F
  2.2163557529318254  0.1097643002930256 19.8255127420625428   F   F   F
  2.2307838748546263  8.7845149552798780 13.0169629846041612   F   F   F
  4.2904083266380573  2.4044044990022151 21.9563841422077424   T   T   T
  8.8667156470240975  5.8787497633015029 22.8932132800925103   T   T   T
  4.5646951036903900  6.7215994100655827 22.3328805422697698   T   T   T
  5.4224805904304931  7.5799639307057038 23.3455720994538183   T   T   T
