Cu Se Sn O                              
   1.00000000000000     
    11.4133142365150313    0.0000000000000000    0.0000000000000007
    -5.7066571182575156   12.1679727199262935   -1.4790248148397627
     0.0000000000000000    0.0000000000000000   30.5258828813255150
   Cu   Se   Sn   O 
    16    32     8     1
Selective dynamics
Direct
  0.1041666666666643  0.2083333333333357  0.5416666666666643   F   F   F
  0.2690633272808469  0.1042789836994800  0.6142025177465342   T   T   T
  0.1875000000000000  0.3750000000000000  0.3750000000000000   F   F   F
  0.3958333333333357  0.2916666666666643  0.4583333333333357   F   F   F
  0.1289489775943196  0.4615199115112887  0.6519080403752540   T   T   T
  0.2481649458452821  0.2685183357486167  0.6076616764902028   T   T   T
  0.0676840825000014  0.3563301949999982  0.5154584450000002   F   F   F
  0.3938884862871177  0.0729305156154822  0.5563355239805219   T   T   T
  0.2113538875000032  0.1436698050000018  0.4845415549999998   F   F   F
  0.3254731175000032  0.4299842049999967  0.4418044350000017   F   F   F
  0.1510174158333299  0.0229968616666696  0.3487917783333359   F   F   F
  0.4788222458333351  0.2366824616666676  0.3915288983333340   F   F   F
  0.4690919392029897  0.4177633922194488  0.5858536231319320   T   T   T
  0.0416666666666643  0.0833333333333357  0.4166666666666643   F   F   F
  0.1041666666666643  0.7083333333333357  0.5416666666666643   F   F   F
  0.2708381512534572  0.6003348511889541  0.6147502257528146   T   T   T
  0.1875000000000000  0.8750000000000000  0.3750000000000000   F   F   F
  0.3958333333333357  0.7916666666666643  0.4583333333333357   F   F   F
  0.1319975520440266  0.9662610533482550  0.6521525447681569   T   T   T
  0.2411305086322955  0.7624923011449027  0.6088151238626551   T   T   T
  0.0676840825000014  0.8563301949999982  0.5154584450000002   F   F   F
  0.4037387176255578  0.5691569960738008  0.5604122010592150   T   T   T
  0.2113538875000032  0.6436698050000018  0.4845415549999998   F   F   F
  0.3254731175000032  0.9299842049999967  0.4418044350000017   F   F   F
  0.1510174158333299  0.5229968616666696  0.3487917783333359   F   F   F
  0.4788222458333351  0.7366824616666676  0.3915288983333340   F   F   F
  0.4432135364720153  0.9130404567402053  0.5794595517480872   T   T   T
  0.0416666666666643  0.5833333333333357  0.4166666666666643   F   F   F
  0.6041666666666643  0.2083333333333357  0.5416666666666643   F   F   F
  0.8036602862373030  0.1145200403925060  0.6136353245338171   T   T   T
  0.6875000000000000  0.3750000000000000  0.3750000000000000   F   F   F
  0.8958333333333357  0.2916666666666643  0.4583333333333357   F   F   F
  0.6356224971622098  0.4603239714454190  0.6506106968119241   T   T   T
  0.7462960676225805  0.2656242338498416  0.6086620329116741   T   T   T
  0.5676840825000014  0.3563301949999982  0.5154584450000002   F   F   F
  0.9032789453888483  0.0623107922818278  0.5556409901454558   T   T   T
  0.7113538875000032  0.1436698050000018  0.4845415549999998   F   F   F
  0.8254731175000032  0.4299842049999967  0.4418044350000017   F   F   F
  0.6510174158333299  0.0229968616666696  0.3487917783333359   F   F   F
  0.9788222458333351  0.2366824616666676  0.3915288983333340   F   F   F
  0.9672891627607711  0.4144794349426988  0.5854430541715772   T   T   T
  0.5416666666666643  0.0833333333333357  0.4166666666666643   F   F   F
  0.6041666666666643  0.7083333333333357  0.5416666666666643   F   F   F
  0.7722968597711244  0.6036455603842441  0.6144295124102825   T   T   T
  0.6875000000000000  0.8750000000000000  0.3750000000000000   F   F   F
  0.8958333333333357  0.7916666666666643  0.4583333333333357   F   F   F
  0.6765178180416882  0.0478525531985241  0.6706053432827019   T   T   T
  0.7507007168897744  0.7671185662053475  0.6075824082297245   T   T   T
  0.5676840825000014  0.8563301949999982  0.5154584450000002   F   F   F
  0.9036656469305555  0.5666116151730947  0.5603645547378591   T   T   T
  0.7113538875000032  0.6436698050000018  0.4845415549999998   F   F   F
  0.8254731175000032  0.9299842049999967  0.4418044350000017   F   F   F
  0.6510174158333299  0.5229968616666696  0.3487917783333359   F   F   F
  0.9788222458333351  0.7366824616666676  0.3915288983333340   F   F   F
  0.9697979829950540  0.9158028319326519  0.5858152690081297   T   T   T
  0.5416666666666643  0.5833333333333357  0.4166666666666643   F   F   F
  0.5175483240815524  0.9768421074267337  0.6446077593994985   T   T   T
 
  0.00000000E+00  0.00000000E+00  0.00000000E+00
  0.00000000E+00  0.00000000E+00  0.00000000E+00
  0.00000000E+00  0.00000000E+00  0.00000000E+00
  0.00000000E+00  0.00000000E+00  0.00000000E+00
  0.00000000E+00  0.00000000E+00  0.00000000E+00
  0.00000000E+00  0.00000000E+00  0.00000000E+00
  0.00000000E+00  0.00000000E+00  0.00000000E+00
  0.00000000E+00  0.00000000E+00  0.00000000E+00
  0.00000000E+00  0.00000000E+00  0.00000000E+00
  0.00000000E+00  0.00000000E+00  0.00000000E+00
  0.00000000E+00  0.00000000E+00  0.00000000E+00
  0.00000000E+00  0.00000000E+00  0.00000000E+00
  0.00000000E+00  0.00000000E+00  0.00000000E+00
  0.00000000E+00  0.00000000E+00  0.00000000E+00
  0.00000000E+00  0.00000000E+00  0.00000000E+00
  0.00000000E+00  0.00000000E+00  0.00000000E+00
  0.00000000E+00  0.00000000E+00  0.00000000E+00
  0.00000000E+00  0.00000000E+00  0.00000000E+00
  0.00000000E+00  0.00000000E+00  0.00000000E+00
  0.00000000E+00  0.00000000E+00  0.00000000E+00
  0.00000000E+00  0.00000000E+00  0.00000000E+00
  0.00000000E+00  0.00000000E+00  0.00000000E+00
  0.00000000E+00  0.00000000E+00  0.00000000E+00
  0.00000000E+00  0.00000000E+00  0.00000000E+00
  0.00000000E+00  0.00000000E+00  0.00000000E+00
  0.00000000E+00  0.00000000E+00  0.00000000E+00
  0.00000000E+00  0.00000000E+00  0.00000000E+00
  0.00000000E+00  0.00000000E+00  0.00000000E+00
  0.00000000E+00  0.00000000E+00  0.00000000E+00
  0.00000000E+00  0.00000000E+00  0.00000000E+00
  0.00000000E+00  0.00000000E+00  0.00000000E+00
  0.00000000E+00  0.00000000E+00  0.00000000E+00
  0.00000000E+00  0.00000000E+00  0.00000000E+00
  0.00000000E+00  0.00000000E+00  0.00000000E+00
  0.00000000E+00  0.00000000E+00  0.00000000E+00
  0.00000000E+00  0.00000000E+00  0.00000000E+00
  0.00000000E+00  0.00000000E+00  0.00000000E+00
  0.00000000E+00  0.00000000E+00  0.00000000E+00
  0.00000000E+00  0.00000000E+00  0.00000000E+00
  0.00000000E+00  0.00000000E+00  0.00000000E+00
  0.00000000E+00  0.00000000E+00  0.00000000E+00
  0.00000000E+00  0.00000000E+00  0.00000000E+00
  0.00000000E+00  0.00000000E+00  0.00000000E+00
  0.00000000E+00  0.00000000E+00  0.00000000E+00
  0.00000000E+00  0.00000000E+00  0.00000000E+00
  0.00000000E+00  0.00000000E+00  0.00000000E+00
  0.00000000E+00  0.00000000E+00  0.00000000E+00
  0.00000000E+00  0.00000000E+00  0.00000000E+00
  0.00000000E+00  0.00000000E+00  0.00000000E+00
  0.00000000E+00  0.00000000E+00  0.00000000E+00
  0.00000000E+00  0.00000000E+00  0.00000000E+00
  0.00000000E+00  0.00000000E+00  0.00000000E+00
  0.00000000E+00  0.00000000E+00  0.00000000E+00
  0.00000000E+00  0.00000000E+00  0.00000000E+00
  0.00000000E+00  0.00000000E+00  0.00000000E+00
  0.00000000E+00  0.00000000E+00  0.00000000E+00
  0.00000000E+00  0.00000000E+00  0.00000000E+00
