Cu Se Sn O
 1.0000000000000000
    11.4133142365150313    0.0000000000000000    0.0000000000000007
    -5.7066571182575156   12.1679727199262935   -1.4790248148397627
     0.0000000000000000    0.0000000000000000   30.5258828813255150
Cu Se Sn O
16 32 8 1
Selective dynamics
Cartesian
  0.0000000000000000  2.5349943166513076 16.2267230576263657   F   F   F
  2.4758198991652618  1.2688638289169059 18.5948429175881706   T   T   T
  0.0000000000000000  4.5629897699723596 10.8925717749321578   F   F   F
  2.8533285591287574  3.5489920433118338 13.5596474162792617   F   F   F
 -1.1620006864821473  5.6157616929721170 19.2174690882214918   T   T   T
  1.3000424373374844  3.2673237841891578 18.1522638861982344   T   T   T
 -1.2609545413641314  4.3358160920460165 15.2078029215784767   F   F   F
  4.0793836220648005  0.8874165244593749 16.8747670053960022   T   T   T
  1.5923740177646266  1.7481702679171320 14.5785675523271543   F   F   F
  1.2609545413641317  5.2320360764391953 12.8505131300760400   F   F   F
  1.5923740177646266  0.2798251854039178 10.6131640463041457   F   F   F
  4.1142831004928890  2.8799457368450017 11.6017060611353795   F   F   F
  2.9698612719834356  5.0833335599101082 17.2658166615013826   T   T   T
  0.0000000000000000  1.0139977266605262 12.5958657993156464   F   F   F
 -2.8533285591287578  8.6189806766144539 15.4872106502064852   F   F   F
 -0.3347442243830301  7.3048580920881943 17.8778832504773284   T   T   T
 -2.8533285591287578 10.6469761299355063 10.1530593675122773   F   F   F
 -0.0000000000000004  9.6329784032749810 12.8201350088593813   F   F   F
 -4.0075909782555978 11.7574381374687960 18.4784081268358875   T   T   T
 -1.5991838509140446  9.2779855194850107 17.4568741328935531   T   T   T
 -4.1142831004928890 10.4198024520091632 14.4682905141585962   F   F   F
  1.3600130306575142  6.9254868015811626 16.2652798940666017   T   T   T
 -1.2609545413641312  7.8321566278802788 13.8390551449072738   F   F   F
 -1.5923740177646262 11.3160224364023421 12.1110007226561578   F   F   F
 -1.2609545413641312  6.3638115453670645  9.8736516388842652   F   F   F
  1.2609545413641312  8.9639320968081488 10.8621936537154973   F   F   F
 -0.1518734560813755 11.1098513698038381 16.3381049186560503   T   T   T
 -2.8533285591287578  7.0979840866236730 11.8563533918957660   F   F   F
  5.7066571182575156  2.5349943166513076 16.2267230576263657   F   F   F
  8.5189007825449394  1.3934767273808712 18.5623820670265509   T   T   T
  5.7066571182575156  4.5629897699723596 10.8925717749321578   F   F   F
  8.5599856773862726  3.5489920433118338 13.5596474162792617   F   F   F
  4.6276482275570769  5.6012095268760076 19.1796353555849919   T   T   T
  7.0018851083710931  3.2321084312362118 18.1870810976846045   T   T   T
  4.4457025768933844  4.3358160920460165 15.2078029215784767   F   F   F
  9.9538201206315016  0.7581960206422517 16.8692725812267739   T   T   T
  7.2990311360221423  1.7481702679171320 14.5785675523271543   F   F   F
  6.9676116596216477  5.2320360764391953 12.8505131300760400   F   F   F
  7.2990311360221423  0.2798251854039178 10.6131640463041457   F   F   F
  9.8209402187504047  2.8799457368450017 11.6017060611353795   F   F   F
  8.6746831543771137  5.0433744573532584 17.2581407358060162   T   T   T
  5.7066571182575156  1.0139977266605262 12.5958657993156464   F   F   F
  2.8533285591287578  8.6189806766144539 15.4872106502064852   F   F   F
  5.3696685103703370  7.3451427112600651 17.8631965714899827   T   T   T
  2.8533285591287578 10.6469761299355063 10.1530593675122773   F   F   F
  5.7066571182575156  9.6329784032749810 12.8201350088593813   F   F   F
  1.7415752123166330 12.7502412818247990 18.9210202401651202   T   T   T
  4.1903005530568631  9.3342777865356048 17.4124020390322940   T   T   T
  1.5923740177646264 10.4198024520091632 14.4682905141585962   F   F   F
  7.0803617861471437  6.8945146762195764 16.2675901295564600   T   T   T
  4.4457025768933844  7.8321566278802788 13.8390551449072738   F   F   F
  4.1142831004928890 11.3160224364023421 12.1110007226561596   F   F   F
  4.4457025768933844  6.3638115453670645  9.8736516388842652   F   F   F
  6.9676116596216469  8.9639320968081488 10.8621936537154991   F   F   F
  5.8424363760921718 11.1434638757877487 16.5280331779054777   T   T   T
  2.8533285591287578  7.0979840866236730 11.8563533918957660   F   F   F
  0.3324386895640330 11.8861881148437956 18.2324472507582200   T   T   T
