Pd S H O
 1.0000000000000000
     9.2679441447573971    0.0000000000000000   -0.5736973883365687
    -0.0000000000000008   12.8254646200000000    0.0000000000000008
     0.0000000000000000    0.0000000000000000   35.3941756256364854
Pd S H O
48 16 1 1
Selective dynamics
Cartesian
  0.5572496923758467  1.6031830774999993 14.7815515264614490   F   F   F
  4.0327287466598731  1.6031830775000007 18.9906869590397989   F   F   F
  0.4653484764494575  1.6225280920579845 21.7773333265013420   T   T   T
  1.6656629688117677  1.6031830775000013 17.4057533190769149   F   F   F
  2.8962325452366864  0.0000000000000000 15.3056714023607849   F   F   F
  1.7495000598197374 -0.0039325468960669 19.7835427065442921   T   T   T
  2.8962325452366864  3.2063661550000013 15.3056714023607849   F   F   F
  1.7851102473856451  3.2304908224295334 19.7773261601437547   T   T   T
  4.1268021216616066  4.8095492325000002 13.2055894856446532   F   F   F
  2.9683091035669333  4.8095492325000002 17.7015736123912859   F   F   F
  4.1714200225685865  5.0376186282582127 20.2826860775406708   T   T   T
  0.6012433257188287  4.8095492325000011 16.1166399724283984   F   F   F
  1.8158388010500754  4.8095492325000011 13.9972119011629932   F   F   F
  0.6573457829553998  4.8095492325000002 18.4931960279096259   F   F   F
  2.7686741237123353  1.6005230705859159 21.1488445671470622   T   T   T
  3.9766262894232973  1.6031830775000007 16.6141309035585749   F   F   F
  0.5572496923758462  8.0159153874999998 14.7815515264614490   F   F   F
  4.0327287466598731  8.0159153875000015 18.9906869590397989   F   F   F
  0.4088122681860333  8.0036120697102984 21.8164152599893200   T   T   T
  1.6656629688117672  8.0159153875000015 17.4057533190769149   F   F   F
  2.8962325452366859  6.4127323100000000 15.3056714023607849   F   F   F
  1.7179431971349990  6.4409093310585819 19.7668250033571233   T   T   T
  2.8962325452366859  9.6190984650000004 15.3056714023607849   F   F   F
  1.7243441034685094  9.6524942468365893 19.7832583050608513   T   T   T
  4.1268021216616066 11.2222815424999993 13.2055894856446532   F   F   F
  2.9683091035669329 11.2222815424999993 17.7015736123912859   F   F   F
  4.0984391644849758 11.2588596041048152 20.2485904532880845   T   T   T
  0.6012433257188282 11.2222815425000011 16.1166399724283984   F   F   F
  1.8158388010500750 11.2222815425000011 13.9972119011629932   F   F   F
  0.6573457829553994 11.2222815424999993 18.4931960279096259   F   F   F
  2.6903161300854115  8.0705280243499242 21.1555700365365560   T   T   T
  3.9766262894232969  8.0159153875000015 16.6141309035585749   F   F   F
  5.1912217647545456  1.6031830774999993 14.4947028322931644   F   F   F
  8.6667008190385708  1.6031830775000007 18.7038382648715142   F   F   F
  5.0857132708858002  1.5076871352220789 21.5003682053189848   T   T   T
  6.2996350411904665  1.6031830775000013 17.1189046249086303   F   F   F
  7.5302046176153850  0.0000000000000000 15.0188227081925003   F   F   F
  6.3856983591542633 -0.0076282217578409 19.4798651054108056   T   T   T
  7.5302046176153850  3.2063661550000013 15.0188227081925003   F   F   F
  6.3334083381343911  3.2137492115361286 19.5277158753652991   T   T   T
  8.7607741940403052  4.8095492325000002 12.9187407914763686   F   F   F
  7.6022811759456319  4.8095492325000002 17.4147249182230013   F   F   F
  8.7428194431826451  4.7522051628592523 19.9546403520780267   T   T   T
  5.2352153980975276  4.8095492325000011 15.8297912782601138   F   F   F
  6.4498108734287740  4.8095492325000011 13.7103632069947086   F   F   F
  5.2913178553340980  4.8095492325000002 18.2063473337413413   F   F   F
  7.4050197905142952  1.6057546969104461 20.8733000084040121   T   T   T
  8.6105983618019959  1.6031830775000007 16.3272822093902903   F   F   F
  5.1912217647545456  8.0159153874999998 14.4947028322931644   F   F   F
  8.6667008190385708  8.0159153875000015 18.7038382648715142   F   F   F
  5.0792049784810400  7.7839560471919054 21.5164765791447579   T   T   T
  6.2996350411904665  8.0159153875000015 17.1189046249086303   F   F   F
  7.5302046176153850  6.4127323100000000 15.0188227081925003   F   F   F
  6.4415445011423902  6.4137821202128622 19.4280933335413799   T   T   T
  7.5302046176153850  9.6190984650000004 15.0188227081925003   F   F   F
  6.3444984687250647  9.6171713066494462 19.5719198945827308   T   T   T
  8.7607741940403052 11.2222815424999993 12.9187407914763686   F   F   F
  7.6022811759456319 11.2222815424999993 17.4147249182230013   F   F   F
  8.7308075558115998 11.2539113922873515 19.9589276143433061   T   T   T
  5.2352153980975276 11.2222815425000011 15.8297912782601138   F   F   F
  6.4498108734287740 11.2222815425000011 13.7103632069947086   F   F   F
  5.2913178553340980 11.2222815424999993 18.2063473337413413   F   F   F
  7.3732052184803862  7.9960256327020129 20.8985379961078159   T   T   T
  8.6105983618019959  8.0159153875000015 16.3272822093902903   F   F   F
  5.3492827563529959  5.3299796476761507 22.5958473404352134   T   T   T
  4.5392887260089809  5.7649163805281303 22.2660598088789321   T   T   T
