Cu Au H O                               
   1.00000000000000     
    11.5570010604156135    0.0000000000000000    0.0000000000000007
     5.7785005302078094   10.0086565098836147    0.0000000000000007
     0.0000000000000000    0.0000000000000000   28.3087555548223619
   Cu   Au   H    O 
    12    36     1     1
Selective dynamics
Direct
  0.0132032534726960  0.0129431179445447  0.5791031427944517   T   T   T
  0.1666666666666643  0.1666666666666643  0.4166666666666643   F   F   F
  0.3333333333333357  0.3333333333333357  0.5000000000000000   F   F   F
  0.4166666666666643  0.1666666666666643  0.4166666666666643   F   F   F
  0.0833333333333357  0.3333333333333357  0.5000000000000000   F   F   F
  0.2579411640031140  0.9972752395260969  0.5851669954325800   T   T   T
  0.1666666666666643  0.4166666666666643  0.4166666666666643   F   F   F
  0.3333333333333357  0.0833333333333357  0.5000000000000000   F   F   F
  0.9972303811477943  0.2579105546869300  0.5851625197650066   T   T   T
  0.4166666666666643  0.4166666666666643  0.4166666666666643   F   F   F
  0.0833333333333357  0.0833333333333357  0.5000000000000000   F   F   F
  0.2510885521000716  0.2511306644994633  0.5859626399225277   T   T   T
  0.9995872488967663  0.4971069960518903  0.5786136404840576   T   T   T
  0.1666666666666643  0.6666666666666643  0.4166666666666643   F   F   F
  0.3333333333333357  0.8333333333333357  0.5000000000000000   F   F   F
  0.4166666666666643  0.6666666666666643  0.4166666666666643   F   F   F
  0.0833333333333357  0.8333333333333357  0.5000000000000000   F   F   F
  0.2554790214901814  0.4949490193034976  0.5853182944391691   T   T   T
  0.1666666666666643  0.9166666666666643  0.4166666666666643   F   F   F
  0.3333333333333357  0.5833333333333357  0.5000000000000000   F   F   F
  0.0012877925809960  0.7285408021806603  0.5854479536334978   T   T   T
  0.4166666666666643  0.9166666666666643  0.4166666666666643   F   F   F
  0.0833333333333357  0.5833333333333357  0.5000000000000000   F   F   F
  0.2580827711429805  0.7470918069342147  0.5830003230523744   T   T   T
  0.4971457550860237  0.9996019182904234  0.5786156048409694   T   T   T
  0.6666666666666643  0.1666666666666643  0.4166666666666643   F   F   F
  0.8333333333333357  0.3333333333333357  0.5000000000000000   F   F   F
  0.9166666666666643  0.1666666666666643  0.4166666666666643   F   F   F
  0.5833333333333357  0.3333333333333357  0.5000000000000000   F   F   F
  0.7284920623331672  0.0012827062520486  0.5854104470104815   T   T   T
  0.6666666666666643  0.4166666666666643  0.4166666666666643   F   F   F
  0.8333333333333357  0.0833333333333357  0.5000000000000000   F   F   F
  0.4950044009218288  0.2554581422226434  0.5853130202358727   T   T   T
  0.9166666666666643  0.4166666666666643  0.4166666666666643   F   F   F
  0.5833333333333357  0.0833333333333357  0.5000000000000000   F   F   F
  0.7470798056578900  0.2580577990228079  0.5830115336027788   T   T   T
  0.4995204196992447  0.4995218723089678  0.5788074764490858   T   T   T
  0.6666666666666643  0.6666666666666643  0.4166666666666643   F   F   F
  0.8333333333333357  0.8333333333333357  0.5000000000000000   F   F   F
  0.9166666666666643  0.6666666666666643  0.4166666666666643   F   F   F
  0.5833333333333357  0.8333333333333357  0.5000000000000000   F   F   F
  0.7504329674618120  0.4989338733745257  0.5861763539053655   T   T   T
  0.6666666666666643  0.9166666666666643  0.4166666666666643   F   F   F
  0.8333333333333357  0.5833333333333357  0.5000000000000000   F   F   F
  0.4989926502045634  0.7503771632089169  0.5861681030639687   T   T   T
  0.9166666666666643  0.9166666666666643  0.4166666666666643   F   F   F
  0.5833333333333357  0.5833333333333357  0.5000000000000000   F   F   F
  0.7477797686793437  0.7477377810749033  0.5850857021915914   T   T   T
  0.9455598910029437  0.9456121113903677  0.6592644980496374   T   T   T
  0.9393249460218343  0.9391455803405719  0.6250365916207983   T   T   T
 
  0.00000000E+00  0.00000000E+00  0.00000000E+00
  0.00000000E+00  0.00000000E+00  0.00000000E+00
  0.00000000E+00  0.00000000E+00  0.00000000E+00
  0.00000000E+00  0.00000000E+00  0.00000000E+00
  0.00000000E+00  0.00000000E+00  0.00000000E+00
  0.00000000E+00  0.00000000E+00  0.00000000E+00
  0.00000000E+00  0.00000000E+00  0.00000000E+00
  0.00000000E+00  0.00000000E+00  0.00000000E+00
  0.00000000E+00  0.00000000E+00  0.00000000E+00
  0.00000000E+00  0.00000000E+00  0.00000000E+00
  0.00000000E+00  0.00000000E+00  0.00000000E+00
  0.00000000E+00  0.00000000E+00  0.00000000E+00
  0.00000000E+00  0.00000000E+00  0.00000000E+00
  0.00000000E+00  0.00000000E+00  0.00000000E+00
  0.00000000E+00  0.00000000E+00  0.00000000E+00
  0.00000000E+00  0.00000000E+00  0.00000000E+00
  0.00000000E+00  0.00000000E+00  0.00000000E+00
  0.00000000E+00  0.00000000E+00  0.00000000E+00
  0.00000000E+00  0.00000000E+00  0.00000000E+00
  0.00000000E+00  0.00000000E+00  0.00000000E+00
  0.00000000E+00  0.00000000E+00  0.00000000E+00
  0.00000000E+00  0.00000000E+00  0.00000000E+00
  0.00000000E+00  0.00000000E+00  0.00000000E+00
  0.00000000E+00  0.00000000E+00  0.00000000E+00
  0.00000000E+00  0.00000000E+00  0.00000000E+00
  0.00000000E+00  0.00000000E+00  0.00000000E+00
  0.00000000E+00  0.00000000E+00  0.00000000E+00
  0.00000000E+00  0.00000000E+00  0.00000000E+00
  0.00000000E+00  0.00000000E+00  0.00000000E+00
  0.00000000E+00  0.00000000E+00  0.00000000E+00
  0.00000000E+00  0.00000000E+00  0.00000000E+00
  0.00000000E+00  0.00000000E+00  0.00000000E+00
  0.00000000E+00  0.00000000E+00  0.00000000E+00
  0.00000000E+00  0.00000000E+00  0.00000000E+00
  0.00000000E+00  0.00000000E+00  0.00000000E+00
  0.00000000E+00  0.00000000E+00  0.00000000E+00
  0.00000000E+00  0.00000000E+00  0.00000000E+00
  0.00000000E+00  0.00000000E+00  0.00000000E+00
  0.00000000E+00  0.00000000E+00  0.00000000E+00
  0.00000000E+00  0.00000000E+00  0.00000000E+00
  0.00000000E+00  0.00000000E+00  0.00000000E+00
  0.00000000E+00  0.00000000E+00  0.00000000E+00
  0.00000000E+00  0.00000000E+00  0.00000000E+00
  0.00000000E+00  0.00000000E+00  0.00000000E+00
  0.00000000E+00  0.00000000E+00  0.00000000E+00
  0.00000000E+00  0.00000000E+00  0.00000000E+00
  0.00000000E+00  0.00000000E+00  0.00000000E+00
  0.00000000E+00  0.00000000E+00  0.00000000E+00
  0.00000000E+00  0.00000000E+00  0.00000000E+00
  0.00000000E+00  0.00000000E+00  0.00000000E+00
