Cu Au H O
 1.0000000000000000
    11.5570010604156135    0.0000000000000000    0.0000000000000007
     5.7785005302078094   10.0086565098836147    0.0000000000000007
     0.0000000000000000    0.0000000000000000   28.3087555548223619
Cu Au H O
12 36 1 1
Selective dynamics
Cartesian
  0.2273818282899640  0.1295432216738845 16.3936893103974484   T   T   T
  2.8892502651039038  1.6681094183139360 11.7953148145093163   F   F   F
  5.7785005302078076  3.3362188366278720 14.1543777774111810   F   F   F
  5.7785005302078067  1.6681094183139360 11.7953148145093163   F   F   F
  2.8892502651039038  3.3362188366278720 14.1543777774111810   F   F   F
  2.9652812760656455 -0.0272711916550179 16.5653494324507022   T   T   T
  4.3338753976558557  4.1702735457848394 11.7953148145093163   F   F   F
  4.3338753976558557  0.8340547091569680 14.1543777774111810   F   F   F
  1.4583277889926805  2.5813381521350025 16.5652227318715717   T   T   T
  7.2231256627597595  4.1702735457848394 11.7953148145093163   F   F   F
  1.4446251325519517  0.8340547091569680 14.1543777774111810   F   F   F
  4.3529893408403488  2.5134805600739569 16.5878731378253264   T   T   T
  2.8677628753181432  4.9753731721434598 16.3798321091490919   T   T   T
  5.7785005302078085  6.6724376732557431 11.7953148145093163   F   F   F
  8.6677507953117114  8.3405470915696789 14.1543777774111810   F   F   F
  8.6677507953117114  6.6724376732557431 11.7953148145093163   F   F   F
  5.7785005302078085  8.3405470915696789 14.1543777774111810   F   F   F
  5.8126344927470797  4.9537747241124599 16.5696325190439069   T   T   T
  7.2231256627597604  9.1746018007266468 11.7953148145093163   F   F   F
  7.2231256627597604  5.8383829640987752 14.1543777774111810   F   F   F
  4.2247564319031436  7.2917146424613239 16.5733030094817053   T   T   T
 10.1123759278636633  9.1746018007266468 11.7953148145093163   F   F   F
  4.3338753976558566  5.8383829640987752 14.1543777774111810   F   F   F
  7.2997332622577078  7.4773852769528677 16.5040136336721019   T   T   T
  5.7432137033404294 -0.0039842630940257 16.3798877176487707   T   T   T
  8.6677507953117114  1.6681094183139360 11.7953148145093163   F   F   F
 11.5570010604156153  3.3362188366278720 14.1543777774111810   F   F   F
 11.5570010604156135  1.6681094183139360 11.7953148145093163   F   F   F
  8.6677507953117114  3.3362188366278720 14.1543777774111810   F   F   F
  8.4265956556463575  0.0128381662798347 16.5722412436590361   T   T   T
 10.1123759278636633  4.1702735457848394 11.7953148145093163   F   F   F
 10.1123759278636633  0.8340547091569680 14.1543777774111810   F   F   F
  7.1969313966433965  2.5567927981594480 16.5694832129121181   T   T   T
 13.0016261929675672  4.1702735457848394 11.7953148145093163   F   F   F
  7.2231256627597586  0.8340547091569680 14.1543777774111810   F   F   F
 10.1251892346808425  2.5828118701158460 16.5043309904032043   T   T   T
  8.6594454241511798  4.9995428391143797 16.3853193641008232   T   T   T
 11.5570010604156153  6.6724376732557431 11.7953148145093163   F   F   F
 14.4462513255195191  8.3405470915696789 14.1543777774111810   F   F   F
 14.4462513255195191  6.6724376732557431 11.7953148145093163   F   F   F
 11.5570010604156153  8.3405470915696789 14.1543777774111810   F   F   F
 11.5558442525603198  4.9936577597513825 16.5939231147241202   T   T   T
 13.0016261929675672  9.1746018007266468 11.7953148145093163   F   F   F
 13.0016261929675672  5.8383829640987752 14.1543777774111810   F   F   F
 10.1029134230122644  7.5102672794189349 16.5936895436717435   T   T   T
 15.8908764580714710  9.1746018007266468 11.7953148145093163   F   F   F
 10.1123759278636633  5.8383829640987752 14.1543777774111810   F   F   F
 12.9628947439822220  7.4838506102412286 16.5630481219633197   T   T   T
 16.3920567500476793  9.4643068144919926 18.6629575212597949   T   T   T
 16.2826326311895144  9.3995855264041115 17.6940080850125838   T   T   T
