Zn Au H O
 1.0000000000000000
    11.4928697623033003   -0.0000000000000000   -0.0000000000000007
     0.0000000000000007   11.4928697623033003   -0.0000000000000007
    -0.0000000000000000    0.0000000000000084   68.2908108707267445
Zn Au H O
64 192 1 1
Selective dynamics
Cartesian
  0.5308953621858189  2.3423220783900094 22.6839648717534494   F   F   F
  3.4041128027616439  5.2155395189658327 18.0477324526047163   F   F   F
  0.5308953621858189  2.3423220783900089 18.0477324526047163   F   F   F
  0.5308953621858189  5.2155395189658371 43.6567865291272383   F   F   F
  3.4041128027616439  5.2155395189658345 22.6839648717534494   F   F   F
  3.4471100357018951  2.3401622400481448 48.3122386943122137   T   T   T
  3.4041128027616434  2.3423220783900121 43.6567865291272383   F   F   F
  0.4917874636154546  5.2242068362694996 48.3549332983349132   T   T   T
  3.4041128027616439  5.2155395189658362 39.7566675894351462   F   F   F
  0.5308953621858189  2.3423220783900112 35.1204351702863988   F   F   F
  3.4041128027616439  5.2155395189658353 35.1204351702863988   F   F   F
  3.4041128027616434  2.3423220783900098 26.5840838114455558   F   F   F
  0.5308953621858189  2.3423220783900116 39.7566675894351462   F   F   F
  0.5308953621858189  5.2155395189658345 31.2203162305942961   F   F   F
  0.5308953621858189  5.2155395189658353 26.5840838114455558   F   F   F
  3.4041128027616434  2.3423220783900107 31.2203162305942961   F   F   F
  5.2155395189658318  1.2805313540183723 20.3658486621790722   F   F   F
  3.4041128027616434  2.3423220783900089 18.3286513127511661   F   F   F
  2.0281882963496329  3.7715191336225344 50.1452077844683686   T   T   T
  2.3423220783900067  0.5308953621858205 20.3658486621790722   F   F   F
  2.3423220783900072  3.4041128027616492 45.9749027387016156   F   F   F
  3.4041128027616439  5.2155395189658380 48.0121000881295217   F   F   F
  4.8633695754420261  0.9156625871438691 50.2169457829773478   T   T   T
  3.4041128027616434  2.3423220783900094 22.4030460116069854   F   F   F
  5.2155395189658318  4.1537487945941995 45.9749027387016156   F   F   F
  3.4041128027616439  5.2155395189658371 43.9377053892737024   F   F   F
  4.4659035271332801  1.2805313540183754 45.9749027387016156   F   F   F
  0.5308953621858189  2.3423220783900129 48.0121000881295217   F   F   F
  1.9734321908936505  0.9057133581020991 41.7067270592811994   F   F   F
  0.5308953621858189  5.2155395189658345 22.4030460116069854   F   F   F
  0.5308953621858189  2.3423220783900121 43.9377053892737024   F   F   F
  1.5926860865574559  3.4041128027616461 20.3658486621790722   F   F   F
  4.8466496314694751  0.9057133581020991 41.7067270592811994   F   F   F
  1.9615759740538123  3.7789307986779241 41.7067270592811994   F   F   F
  4.4659035271332810  4.1537487945941969 20.3658486621790722   F   F   F
  2.0042059800922449  0.9152359533343086 50.2221109582629310   T   T   T
  0.5308953621858189  5.2155395189658336 18.3286513127511661   F   F   F
  4.8347934146296376  3.7789307986779241 41.7067270592811994   F   F   F
  1.5926860865574552  0.5308953621858236 45.9749027387016156   F   F   F
  4.8794348621909522  3.7877923897238417 50.2403802833637769   T   T   T
  2.3423220783900076  4.1537487945941987 37.4385513798607690   F   F   F
  0.5308953621858189  5.2155395189658353 35.4013540304328629   F   F   F
  4.8407215230495568  0.9116414665220172 33.1703757004403457   F   F   F
  5.2155395189658318  3.4041128027616478 37.4385513798607690   F   F   F
  5.2155395189658318  0.5308953621858222 28.9022000210199330   F   F   F
  0.5308953621858189  2.3423220783900107 30.9393973704478462   F   F   F
  1.9675040824737309  3.7730026902580032 33.1703757004403457   F   F   F
  0.5308953621858189  5.2155395189658362 39.4757487292886822   F   F   F
  2.3423220783900067  1.2805313540183723 28.9022000210199330   F   F   F
  0.5308953621858189  2.3423220783900098 26.8650026715920269   F   F   F
  1.5926860865574559  4.1537487945941978 28.9022000210199330   F   F   F
  3.4041128027616439  5.2155395189658345 30.9393973704478462   F   F   F
  4.8466496314694760  3.7789307986779219 24.6340243415995026   F   F   F
  3.4041128027616434  2.3423220783900116 39.4757487292886822   F   F   F
  3.4041128027616439  5.2155395189658353 26.8650026715920269   F   F   F
  4.4659035271332810  0.5308953621858236 37.4385513798607690   F   F   F
  1.9734321908936507  3.7789307986779219 24.6340243415995026   F   F   F
  4.8347934146296376  0.9057133581020967 24.6340243415995026   F   F   F
  1.5926860865574552  1.2805313540183736 37.4385513798607690   F   F   F
  4.8407215230495568  3.7848589070978416 33.1703757004403457   F   F   F
  3.4041128027616434  2.3423220783900112 35.4013540304328629   F   F   F
  1.9615759740538123  0.9057133581020967 24.6340243415995026   F   F   F
  4.4659035271332819  3.4041128027616470 28.9022000210199330   F   F   F
  1.9675040824737313  0.8997852496821790 33.1703757004403457   F   F   F
  0.5308953621858192  8.0887569595416586 22.6839648717534494   F   F   F
  3.4041128027616443 10.9619744001174837 18.0477324526047163   F   F   F
  0.5308953621858192  8.0887569595416586 18.0477324526047163   F   F   F
  0.5308953621858192 10.9619744001174872 43.6567865291272383   F   F   F
  3.4041128027616443 10.9619744001174837 22.6839648717534494   F   F   F
  3.4416868277945256  8.1199796795707258 48.3089154251321133   T   T   T
  3.4041128027616439  8.0887569595416622 43.6567865291272383   F   F   F
  0.5671908196863198 10.9698936009990753 48.3194466911119207   T   T   T
  3.4041128027616443 10.9619744001174872 39.7566675894351462   F   F   F
  0.5308953621858192  8.0887569595416622 35.1204351702863988   F   F   F
  3.4041128027616443 10.9619744001174855 35.1204351702863988   F   F   F
  3.4041128027616439  8.0887569595416604 26.5840838114455558   F   F   F
  0.5308953621858192  8.0887569595416622 39.7566675894351462   F   F   F
  0.5308953621858192 10.9619744001174837 31.2203162305942961   F   F   F
  0.5308953621858192 10.9619744001174855 26.5840838114455558   F   F   F
  3.4041128027616439  8.0887569595416604 31.2203162305942961   F   F   F
  5.2155395189658318  7.0269662351700219 20.3658486621790722   F   F   F
  3.4041128027616439  8.0887569595416586 18.3286513127511661   F   F   F
  1.9881676974106246  9.5454970544355806 50.2274476841908495   T   T   T
  2.3423220783900072  6.2773302433374703 20.3658486621790722   F   F   F
  2.3423220783900076  9.1505476839132989 45.9749027387016156   F   F   F
  3.4041128027616443 10.9619744001174872 48.0121000881295217   F   F   F
  4.8717853019357209  6.6398535144219064 50.2358163507693121   T   T   T
  3.4041128027616439  8.0887569595416586 22.4030460116069854   F   F   F
  5.2155395189658318  9.9001836757458506 45.9749027387016156   F   F   F
  3.4041128027616443 10.9619744001174872 43.9377053892737024   F   F   F
  4.4659035271332801  7.0269662351700255 45.9749027387016156   F   F   F
  0.5308953621858192  8.0887569595416622 48.0121000881295217   F   F   F
  1.9734321908936510  6.6521482392537497 41.7067270592811994   F   F   F
  0.5308953621858192 10.9619744001174837 22.4030460116069854   F   F   F
  0.5308953621858192  8.0887569595416622 43.9377053892737024   F   F   F
  1.5926860865574564  9.1505476839132953 20.3658486621790722   F   F   F
  4.8466496314694751  6.6521482392537497 41.7067270592811994   F   F   F
  1.9615759740538128  9.5253656798295747 41.7067270592811994   F   F   F
  4.4659035271332810  9.9001836757458470 20.3658486621790722   F   F   F
  2.0419424814568794  6.6906122269097619 50.1422830027864279   T   T   T
  0.5308953621858192 10.9619744001174837 18.3286513127511661   F   F   F
  4.8347934146296376  9.5253656798295747 41.7067270592811994   F   F   F
  1.5926860865574557  6.2773302433374738 45.9749027387016156   F   F   F
  4.8459774735497705  9.5209013066627382 50.2261030098948709   T   T   T
  2.3423220783900081  9.9001836757458488 37.4385513798607690   F   F   F
  0.5308953621858192 10.9619744001174855 35.4013540304328629   F   F   F
  4.8407215230495568  6.6580763476736671 33.1703757004403457   F   F   F
  5.2155395189658318  9.1505476839132989 37.4385513798607690   F   F   F
  5.2155395189658318  6.2773302433374720 28.9022000210199330   F   F   F
  0.5308953621858192  8.0887569595416604 30.9393973704478462   F   F   F
  1.9675040824737313  9.5194375714096537 33.1703757004403457   F   F   F
  0.5308953621858192 10.9619744001174872 39.4757487292886822   F   F   F
  2.3423220783900072  7.0269662351700219 28.9022000210199330   F   F   F
  0.5308953621858192  8.0887569595416604 26.8650026715920269   F   F   F
  1.5926860865574564  9.9001836757458470 28.9022000210199330   F   F   F
  3.4041128027616443 10.9619744001174837 30.9393973704478462   F   F   F
  4.8466496314694760  9.5253656798295729 24.6340243415995026   F   F   F
  3.4041128027616439  8.0887569595416622 39.4757487292886822   F   F   F
  3.4041128027616443 10.9619744001174855 26.8650026715920269   F   F   F
  4.4659035271332810  6.2773302433374738 37.4385513798607690   F   F   F
  1.9734321908936512  9.5253656798295729 24.6340243415995026   F   F   F
  4.8347934146296376  6.6521482392537470 24.6340243415995026   F   F   F
  1.5926860865574557  7.0269662351700237 37.4385513798607690   F   F   F
  4.8407215230495568  9.5312937882494921 33.1703757004403457   F   F   F
  3.4041128027616439  8.0887569595416622 35.4013540304328629   F   F   F
  1.9615759740538128  6.6521482392537470 24.6340243415995026   F   F   F
  4.4659035271332819  9.1505476839132971 28.9022000210199330   F   F   F
  1.9675040824737318  6.6462201308338287 33.1703757004403457   F   F   F
  6.2773302433374694  2.3423220783900094 22.6839648717534494   F   F   F
  9.1505476839132935  5.2155395189658327 18.0477324526047163   F   F   F
  6.2773302433374694  2.3423220783900089 18.0477324526047163   F   F   F
  6.2773302433374694  5.2155395189658371 43.6567865291272383   F   F   F
  9.1505476839132935  5.2155395189658345 22.6839648717534494   F   F   F
  9.1980383973144964  2.3752046193860825 48.3355198775572035   T   T   T
  9.1505476839132935  2.3423220783900121 43.6567865291272383   F   F   F
  6.2859578997531527  5.2211701896155178 48.3219786534065179   T   T   T
  9.1505476839132935  5.2155395189658362 39.7566675894351462   F   F   F
  6.2773302433374694  2.3423220783900112 35.1204351702863988   F   F   F
  9.1505476839132935  5.2155395189658353 35.1204351702863988   F   F   F
  9.1505476839132935  2.3423220783900098 26.5840838114455558   F   F   F
  6.2773302433374694  2.3423220783900116 39.7566675894351462   F   F   F
  6.2773302433374694  5.2155395189658345 31.2203162305942961   F   F   F
  6.2773302433374694  5.2155395189658353 26.5840838114455558   F   F   F
  9.1505476839132935  2.3423220783900107 31.2203162305942961   F   F   F
 10.9619744001174819  1.2805313540183723 20.3658486621790722   F   F   F
  9.1505476839132935  2.3423220783900089 18.3286513127511661   F   F   F
  7.7112487480812462  3.7912109669156435 50.1824223166536854   T   T   T
  8.0887569595416569  0.5308953621858205 20.3658486621790722   F   F   F
  8.0887569595416569  3.4041128027616492 45.9749027387016156   F   F   F
  9.1505476839132935  5.2155395189658380 48.0121000881295217   F   F   F
 10.6343430625105348  0.8793902094538579 50.2167397557009849   T   T   T
  9.1505476839132935  2.3423220783900094 22.4030460116069854   F   F   F
 10.9619744001174819  4.1537487945941995 45.9749027387016156   F   F   F
  9.1505476839132935  5.2155395189658371 43.9377053892737024   F   F   F
 10.2123384082849302  1.2805313540183754 45.9749027387016156   F   F   F
  6.2773302433374694  2.3423220783900129 48.0121000881295217   F   F   F
  7.7198670720453002  0.9057133581020991 41.7067270592811994   F   F   F
  6.2773302433374694  5.2155395189658345 22.4030460116069854   F   F   F
  6.2773302433374694  2.3423220783900121 43.9377053892737024   F   F   F
  7.3391209677091060  3.4041128027616461 20.3658486621790722   F   F   F
 10.5930845126211253  0.9057133581020991 41.7067270592811994   F   F   F
  7.7080108552054627  3.7789307986779241 41.7067270592811994   F   F   F
 10.2123384082849320  4.1537487945941969 20.3658486621790722   F   F   F
  7.7403720492188341  0.9289611430874400 50.2017766513150150   T   T   T
  6.2773302433374694  5.2155395189658336 18.3286513127511661   F   F   F
 10.5812282957812869  3.7789307986779241 41.7067270592811994   F   F   F
  7.3391209677091052  0.5308953621858236 45.9749027387016156   F   F   F
 10.6129701165053767  3.6648446107436086 50.2626695336653597   T   T   T
  8.0887569595416586  4.1537487945941987 37.4385513798607690   F   F   F
  6.2773302433374694  5.2155395189658353 35.4013540304328629   F   F   F
 10.5871564042012061  0.9116414665220172 33.1703757004403457   F   F   F
 10.9619744001174819  3.4041128027616478 37.4385513798607690   F   F   F
 10.9619744001174819  0.5308953621858222 28.9022000210199330   F   F   F
  6.2773302433374694  2.3423220783900107 30.9393973704478462   F   F   F
  7.7139389636253810  3.7730026902580032 33.1703757004403457   F   F   F
  6.2773302433374694  5.2155395189658362 39.4757487292886822   F   F   F
  8.0887569595416569  1.2805313540183723 28.9022000210199330   F   F   F
  6.2773302433374694  2.3423220783900098 26.8650026715920269   F   F   F
  7.3391209677091060  4.1537487945941978 28.9022000210199330   F   F   F
  9.1505476839132935  5.2155395189658345 30.9393973704478462   F   F   F
 10.5930845126211253  3.7789307986779219 24.6340243415995026   F   F   F
  9.1505476839132935  2.3423220783900116 39.4757487292886822   F   F   F
  9.1505476839132935  5.2155395189658353 26.8650026715920269   F   F   F
 10.2123384082849320  0.5308953621858236 37.4385513798607690   F   F   F
  7.7198670720453011  3.7789307986779219 24.6340243415995026   F   F   F
 10.5812282957812869  0.9057133581020967 24.6340243415995026   F   F   F
  7.3391209677091052  1.2805313540183736 37.4385513798607690   F   F   F
 10.5871564042012061  3.7848589070978416 33.1703757004403457   F   F   F
  9.1505476839132935  2.3423220783900112 35.4013540304328629   F   F   F
  7.7080108552054627  0.9057133581020967 24.6340243415995026   F   F   F
 10.2123384082849320  3.4041128027616470 28.9022000210199330   F   F   F
  7.7139389636253810  0.8997852496821790 33.1703757004403457   F   F   F
  6.2773302433374694  8.0887569595416586 22.6839648717534494   F   F   F
  9.1505476839132935 10.9619744001174837 18.0477324526047163   F   F   F
  6.2773302433374694  8.0887569595416586 18.0477324526047163   F   F   F
  6.2773302433374694 10.9619744001174872 43.6567865291272383   F   F   F
  9.1505476839132935 10.9619744001174837 22.6839648717534494   F   F   F
  9.1945826481127479  8.1129260715725664 48.3500441356474084   T   T   T
  9.1505476839132935  8.0887569595416622 43.6567865291272383   F   F   F
  6.2724157051690055 10.9692636200834563 48.3376776802707582   T   T   T
  9.1505476839132935 10.9619744001174872 39.7566675894351462   F   F   F
  6.2773302433374694  8.0887569595416622 35.1204351702863988   F   F   F
  9.1505476839132935 10.9619744001174855 35.1204351702863988   F   F   F
  9.1505476839132935  8.0887569595416604 26.5840838114455558   F   F   F
  6.2773302433374694  8.0887569595416622 39.7566675894351462   F   F   F
  6.2773302433374694 10.9619744001174837 31.2203162305942961   F   F   F
  6.2773302433374694 10.9619744001174855 26.5840838114455558   F   F   F
  9.1505476839132935  8.0887569595416604 31.2203162305942961   F   F   F
 10.9619744001174819  7.0269662351700219 20.3658486621790722   F   F   F
  9.1505476839132935  8.0887569595416586 18.3286513127511661   F   F   F
  7.7067137569351445  9.5540807993870462 50.2161377427724460   T   T   T
  8.0887569595416569  6.2773302433374703 20.3658486621790722   F   F   F
  8.0887569595416569  9.1505476839132989 45.9749027387016156   F   F   F
  9.1505476839132935 10.9619744001174872 48.0121000881295217   F   F   F
 10.6198620639128158  6.8261613935617103 50.2581348729823389   T   T   T
  9.1505476839132935  8.0887569595416586 22.4030460116069854   F   F   F
 10.9619744001174819  9.9001836757458506 45.9749027387016156   F   F   F
  9.1505476839132935 10.9619744001174872 43.9377053892737024   F   F   F
 10.2123384082849302  7.0269662351700255 45.9749027387016156   F   F   F
  6.2773302433374694  8.0887569595416622 48.0121000881295217   F   F   F
  7.7198670720453002  6.6521482392537497 41.7067270592811994   F   F   F
  6.2773302433374694 10.9619744001174837 22.4030460116069854   F   F   F
  6.2773302433374694  8.0887569595416622 43.9377053892737024   F   F   F
  7.3391209677091060  9.1505476839132953 20.3658486621790722   F   F   F
 10.5930845126211253  6.6521482392537497 41.7067270592811994   F   F   F
  7.7080108552054627  9.5253656798295747 41.7067270592811994   F   F   F
 10.2123384082849320  9.9001836757458470 20.3658486621790722   F   F   F
  7.7188943742571183  6.6780263715064034 50.1777080461484388   T   T   T
  6.2773302433374694 10.9619744001174837 18.3286513127511661   F   F   F
 10.5812282957812869  9.5253656798295747 41.7067270592811994   F   F   F
  7.3391209677091052  6.2773302433374738 45.9749027387016156   F   F   F
 10.6113084680113126  9.6097581474829372 50.2252383180526181   T   T   T
  8.0887569595416586  9.9001836757458488 37.4385513798607690   F   F   F
  6.2773302433374694 10.9619744001174855 35.4013540304328629   F   F   F
 10.5871564042012061  6.6580763476736671 33.1703757004403457   F   F   F
 10.9619744001174819  9.1505476839132989 37.4385513798607690   F   F   F
 10.9619744001174819  6.2773302433374720 28.9022000210199330   F   F   F
  6.2773302433374694  8.0887569595416604 30.9393973704478462   F   F   F
  7.7139389636253810  9.5194375714096537 33.1703757004403457   F   F   F
  6.2773302433374694 10.9619744001174872 39.4757487292886822   F   F   F
  8.0887569595416569  7.0269662351700219 28.9022000210199330   F   F   F
  6.2773302433374694  8.0887569595416604 26.8650026715920269   F   F   F
  7.3391209677091060  9.9001836757458470 28.9022000210199330   F   F   F
  9.1505476839132935 10.9619744001174837 30.9393973704478462   F   F   F
 10.5930845126211253  9.5253656798295729 24.6340243415995026   F   F   F
  9.1505476839132935  8.0887569595416622 39.4757487292886822   F   F   F
  9.1505476839132935 10.9619744001174855 26.8650026715920269   F   F   F
 10.2123384082849320  6.2773302433374738 37.4385513798607690   F   F   F
  7.7198670720453011  9.5253656798295729 24.6340243415995026   F   F   F
 10.5812282957812869  6.6521482392537470 24.6340243415995026   F   F   F
  7.3391209677091052  7.0269662351700237 37.4385513798607690   F   F   F
 10.5871564042012061  9.5312937882494921 33.1703757004403457   F   F   F
  9.1505476839132935  8.0887569595416622 35.4013540304328629   F   F   F
  7.7080108552054627  6.6521482392537470 24.6340243415995026   F   F   F
 10.2123384082849320  9.1505476839132971 28.9022000210199330   F   F   F
  7.7139389636253810  6.6462201308338287 33.1703757004403457   F   F   F
  9.9041942788124704  5.2481176183305207 52.3426051868394566   T   T   T
 10.7683354159909879  5.2498261379807651 51.8828666315241662   T   T   T
