In Cu Se
 1.0000000000000000
     8.4502271495309422    0.0000000000000000    0.0000000000000005
    -0.0000000000000008   13.7747342905269683   -4.7927822649817520
     0.0000000000000000    0.0000000000000000   36.4618007829892363
In Cu Se
16 16 32
Selective dynamics
Cartesian
  2.1125567873827356  0.0000000000000000 12.3335659311359507   F   F   F
  2.1125567873827356  3.4436835726317421 14.7815504431894347   F   F   F
  0.0000000000000000  0.0000000000000000 15.9797460094348729   F   F   F
 -0.0000000000000002  3.4436835726317421 11.1353703648905125   F   F   F
  2.1125567873827351  6.1337660334471007 14.6434775028433535   F   F   F
  2.1125567873827356  2.6900824608153591 12.1954929907898695   F   F   F
 -0.0000000000000004  5.9191264707639961 11.2992399950178992   F   F   F
 -0.0000000000000002  2.4754428981322540 16.1436156395622596   F   F   F
  2.1125567873827356  0.0000000000000000 19.6259260877337951   F   F   F
  2.1131477343782796  3.5349088969689300 22.1374301239066078   T   T   T
  0.0011260177270742 -0.0126649737285334 23.3618538979267392   T   T   T
 -0.0000000000000002  3.4436835726317421 18.4277305214883569   F   F   F
  2.1119509277361233  6.1812490614761924 21.9816809655842675   T   T   T
  2.1125567873827356  2.6900824608153591 19.4878531473877175   F   F   F
 -0.0000000000000004  5.9191264707639961 18.5916001516157472   F   F   F
  0.0005260860750694  2.5078326441507066 23.3965990037785900   T   T   T
  2.1125567873827351  6.8873671452634841  9.9371747986450742   F   F   F
  2.1125567873827351 10.3310507178952271 12.3851593106985582   F   F   F
 -0.0000000000000004  6.8873671452634841 13.5833548769439965   F   F   F
 -0.0000000000000006 10.3310507178952271  8.7389792323996360   F   F   F
  2.1125567873827347 13.0211331787105848 12.2470863703524770   F   F   F
  2.1125567873827351  9.5774496060788437  9.7991018582989931   F   F   F
 -0.0000000000000008 12.8064936160274812  8.9028488625270228   F   F   F
 -0.0000000000000006  9.3628100433957382 13.7472245070713832   F   F   F
  2.1125567873827351  6.8873671452634841 17.2295349552429187   F   F   F
  2.1131119683449726 10.4218471909552086 19.7406712277961525   T   T   T
  0.0010051053468483  6.8730008254893580 20.9650169240899267   T   T   T
 -0.0000000000000006 10.3310507178952271 16.0313393889974805   F   F   F
  2.1120930367775852 13.0682294585677994 19.5843963663658158   T   T   T
  2.1125567873827351  9.5774496060788437 17.0914620148968410   F   F   F
 -0.0000000000000008 12.8064936160274812 16.1952090191248708   F   F   F
  0.0005014020907760  9.3937305994291176 20.9991625846031837   T   T   T
  6.3376703621482067  0.0000000000000000 12.3335659311359507   F   F   F
  6.3376703621482067  3.4436835726317421 14.7815504431894347   F   F   F
  4.2251135747654711  0.0000000000000000 15.9797460094348729   F   F   F
  4.2251135747654711  3.4436835726317421 11.1353703648905125   F   F   F
  6.3376703621482058  6.1337660334471007 14.6434775028433535   F   F   F
  6.3376703621482067  2.6900824608153591 12.1954929907898695   F   F   F
  4.2251135747654711  5.9191264707639961 11.2992399950178992   F   F   F
  4.2251135747654711  2.4754428981322540 16.1436156395622596   F   F   F
  6.3376703621482067  0.0000000000000000 19.6259260877337951   F   F   F
  6.3378454155861492  3.5351375963869467 22.1378764536002670   T   T   T
  4.2240311631847884 -0.0155789601740253 23.3599067431846557   T   T   T
  4.2251135747654711  3.4436835726317421 18.4277305214883569   F   F   F
  6.3382153423156389  6.1811538734987703 21.9792916819954129   T   T   T
  6.3376703621482067  2.6900824608153591 19.4878531473877175   F   F   F
  4.2251135747654711  5.9191264707639961 18.5916001516157472   F   F   F
  4.2251524116648920  2.5067085241971050 23.3961341508501732   T   T   T
  6.3376703621482067  6.8873671452634841  9.9371747986450742   F   F   F
  6.3376703621482067 10.3310507178952271 12.3851593106985582   F   F   F
  4.2251135747654711  6.8873671452634841 13.5833548769439965   F   F   F
  4.2251135747654711 10.3310507178952271  8.7389792323996360   F   F   F
  6.3376703621482058 13.0211331787105848 12.2470863703524770   F   F   F
  6.3376703621482067  9.5774496060788437  9.7991018582989931   F   F   F
  4.2251135747654711 12.8064936160274812  8.9028488625270228   F   F   F
  4.2251135747654711  9.3628100433957382 13.7472245070713832   F   F   F
  6.3376703621482067  6.8873671452634841 17.2295349552429187   F   F   F
  6.3378835136842655 10.4220389805717737 19.7410794705219779   T   T   T
  4.2238939997103966  6.8700963816660039 20.9633038635634001   T   T   T
  4.2251135747654711 10.3310507178952271 16.0313393889974805   F   F   F
  6.3383011788357955 13.0681080761534361 19.5816037763008879   T   T   T
  6.3376703621482067  9.5774496060788437 17.0914620148968410   F   F   F
  4.2251135747654711 12.8064936160274812 16.1952090191248708   F   F   F
  4.2251864204548450  9.3926064988441151 20.9986413435853336   T   T   T
