Ga S Zn H O                             
   1.00000000000000     
    10.5960429026038518    0.0000000000000000    0.8384011971130300
     5.2346806069340541   12.2124211163335410    1.2197270132613327
     0.0000000000000000    0.0000000000000000   33.6888360101871669
   Ga   S    Zn   H    O 
    16    32     8     1     1
Selective dynamics
Direct
  0.1817644519251971  0.3283342123030408  0.6085456949258372   T   T   T
  0.3928571428571459  0.4464285714285694  0.5357142857142847   F   F   F
  0.1071428571428541  0.0535714285714306  0.4642857142857153   F   F   F
  0.3214285714285694  0.1607142857142847  0.3928571428571459   F   F   F
  0.0877436579183026  0.2921757592931726  0.5521578679677575   T   T   T
  0.2445385416889820  0.4824033357331601  0.5918394591457456   T   T   T
  0.3653983687950699  0.1776272123277352  0.6299353233107468   T   T   T
  0.4378331699999976  0.1033092675000020  0.5164569749999970   F   F   F
  0.0246245578571447  0.0093175489285713  0.4084584807142875   F   F   F
  0.1667427757142832  0.2049681653571440  0.4486843764285737   F   F   F
  0.2993709249999981  0.3966907324999980  0.4835430250000030   F   F   F
  0.3664045985714282  0.3175949817857173  0.3735998321428582   F   F   F
  0.0267476617702656  0.1408852417426516  0.5752734376977884   T   T   T
  0.4642857142857153  0.3571428571428541  0.4285714285714306   F   F   F
  0.2199562278331655  0.8188422357364331  0.5947940357356316   T   T   T
  0.3928571428571459  0.9464285714285694  0.5357142857142847   F   F   F
  0.1071428571428541  0.5535714285714306  0.4642857142857153   F   F   F
  0.3214285714285694  0.6607142857142847  0.3928571428571459   F   F   F
  0.0832433294324062  0.7886454501116873  0.5526071799492840   T   T   T
  0.2379376226141403  0.9859442988761842  0.5918754679999125   T   T   T
  0.3648389531831882  0.6804630261237747  0.6298736368959368   T   T   T
  0.4378331699999976  0.6033092675000020  0.5164569749999970   F   F   F
  0.0246245578571447  0.5093175489285713  0.4084584807142875   F   F   F
  0.1667427757142832  0.7049681653571440  0.4486843764285737   F   F   F
  0.2993709249999981  0.8966907324999980  0.4835430250000030   F   F   F
  0.3664045985714282  0.8175949817857173  0.3735998321428582   F   F   F
  0.0319901498118540  0.6252809219439328  0.5778048242203440   T   T   T
  0.4642857142857153  0.8571428571428541  0.4285714285714306   F   F   F
  0.7211708764194924  0.3165826423497151  0.5946494110242355   T   T   T
  0.8928571428571459  0.4464285714285694  0.5357142857142847   F   F   F
  0.6071428571428541  0.0535714285714306  0.4642857142857153   F   F   F
  0.8214285714285694  0.1607142857142847  0.3928571428571459   F   F   F
  0.5860651549290026  0.2883615036492984  0.5511429314719081   T   T   T
  0.7373518977551257  0.4835944457758288  0.5924327207343723   T   T   T
  0.8640778519690286  0.1730402064050480  0.6281505301844348   T   T   T
  0.9378331699999976  0.1033092675000020  0.5164569749999970   F   F   F
  0.5246245578571447  0.0093175489285713  0.4084584807142875   F   F   F
  0.6667427757142832  0.2049681653571440  0.4486843764285737   F   F   F
  0.7993709249999981  0.3966907324999980  0.4835430250000030   F   F   F
  0.8664045985714282  0.3175949817857173  0.3735998321428582   F   F   F
  0.5186270301996814  0.1381503025004633  0.5766369920874723   T   T   T
  0.9642857142857153  0.3571428571428541  0.4285714285714306   F   F   F
  0.7221773085150147  0.8165135940326138  0.5945580096559624   T   T   T
  0.8928571428571459  0.9464285714285694  0.5357142857142847   F   F   F
  0.6071428571428541  0.5535714285714306  0.4642857142857153   F   F   F
  0.8214285714285694  0.6607142857142847  0.3928571428571459   F   F   F
  0.5836226375942886  0.7882112419011804  0.5520012118071733   T   T   T
  0.7362680216830384  0.9842746838045784  0.5915363697990870   T   T   T
  0.8642597919817945  0.6755021210053869  0.6291084571903482   T   T   T
  0.9378331699999976  0.6033092675000020  0.5164569749999970   F   F   F
  0.5246245578571447  0.5093175489285713  0.4084584807142875   F   F   F
  0.6667427757142832  0.7049681653571440  0.4486843764285737   F   F   F
  0.7993709249999981  0.8966907324999980  0.4835430250000030   F   F   F
  0.8664045985714282  0.8175949817857173  0.3735998321428582   F   F   F
  0.5254270918535511  0.6306591651727018  0.5768215500438316   T   T   T
  0.9642857142857153  0.8571428571428541  0.4285714285714306   F   F   F
  0.0644930549553990  0.4053721786929785  0.6687273576991402   T   T   T
  0.0355384446410767  0.3825693808158022  0.6456090088958177   T   T   T
 
  0.00000000E+00  0.00000000E+00  0.00000000E+00
  0.00000000E+00  0.00000000E+00  0.00000000E+00
  0.00000000E+00  0.00000000E+00  0.00000000E+00
  0.00000000E+00  0.00000000E+00  0.00000000E+00
  0.00000000E+00  0.00000000E+00  0.00000000E+00
  0.00000000E+00  0.00000000E+00  0.00000000E+00
  0.00000000E+00  0.00000000E+00  0.00000000E+00
  0.00000000E+00  0.00000000E+00  0.00000000E+00
  0.00000000E+00  0.00000000E+00  0.00000000E+00
  0.00000000E+00  0.00000000E+00  0.00000000E+00
  0.00000000E+00  0.00000000E+00  0.00000000E+00
  0.00000000E+00  0.00000000E+00  0.00000000E+00
  0.00000000E+00  0.00000000E+00  0.00000000E+00
  0.00000000E+00  0.00000000E+00  0.00000000E+00
  0.00000000E+00  0.00000000E+00  0.00000000E+00
  0.00000000E+00  0.00000000E+00  0.00000000E+00
  0.00000000E+00  0.00000000E+00  0.00000000E+00
  0.00000000E+00  0.00000000E+00  0.00000000E+00
  0.00000000E+00  0.00000000E+00  0.00000000E+00
  0.00000000E+00  0.00000000E+00  0.00000000E+00
  0.00000000E+00  0.00000000E+00  0.00000000E+00
  0.00000000E+00  0.00000000E+00  0.00000000E+00
  0.00000000E+00  0.00000000E+00  0.00000000E+00
  0.00000000E+00  0.00000000E+00  0.00000000E+00
  0.00000000E+00  0.00000000E+00  0.00000000E+00
  0.00000000E+00  0.00000000E+00  0.00000000E+00
  0.00000000E+00  0.00000000E+00  0.00000000E+00
  0.00000000E+00  0.00000000E+00  0.00000000E+00
  0.00000000E+00  0.00000000E+00  0.00000000E+00
  0.00000000E+00  0.00000000E+00  0.00000000E+00
  0.00000000E+00  0.00000000E+00  0.00000000E+00
  0.00000000E+00  0.00000000E+00  0.00000000E+00
  0.00000000E+00  0.00000000E+00  0.00000000E+00
  0.00000000E+00  0.00000000E+00  0.00000000E+00
  0.00000000E+00  0.00000000E+00  0.00000000E+00
  0.00000000E+00  0.00000000E+00  0.00000000E+00
  0.00000000E+00  0.00000000E+00  0.00000000E+00
  0.00000000E+00  0.00000000E+00  0.00000000E+00
  0.00000000E+00  0.00000000E+00  0.00000000E+00
  0.00000000E+00  0.00000000E+00  0.00000000E+00
  0.00000000E+00  0.00000000E+00  0.00000000E+00
  0.00000000E+00  0.00000000E+00  0.00000000E+00
  0.00000000E+00  0.00000000E+00  0.00000000E+00
  0.00000000E+00  0.00000000E+00  0.00000000E+00
  0.00000000E+00  0.00000000E+00  0.00000000E+00
  0.00000000E+00  0.00000000E+00  0.00000000E+00
  0.00000000E+00  0.00000000E+00  0.00000000E+00
  0.00000000E+00  0.00000000E+00  0.00000000E+00
  0.00000000E+00  0.00000000E+00  0.00000000E+00
  0.00000000E+00  0.00000000E+00  0.00000000E+00
  0.00000000E+00  0.00000000E+00  0.00000000E+00
  0.00000000E+00  0.00000000E+00  0.00000000E+00
  0.00000000E+00  0.00000000E+00  0.00000000E+00
  0.00000000E+00  0.00000000E+00  0.00000000E+00
  0.00000000E+00  0.00000000E+00  0.00000000E+00
  0.00000000E+00  0.00000000E+00  0.00000000E+00
  0.00000000E+00  0.00000000E+00  0.00000000E+00
  0.00000000E+00  0.00000000E+00  0.00000000E+00
