Ga S Zn H O
 1.0000000000000000
    10.5960429026038518    0.0000000000000000    0.8384011971130300
     5.2346806069340541   12.2124211163335410    1.2197270132613327
     0.0000000000000000    0.0000000000000000   33.6888360101871669
Ga S Zn H O
16 32 8 1 1
Selective dynamics
Cartesian
  3.6447086645033364  4.0097556675444004 21.0540657632724368   T   T   T
  6.4996421255470720  5.4519737126489014 18.9214836066720515   F   F   F
  1.4157196292218797  0.6542368455178713 15.7964165087022952   F   F   F
  4.2471588876656376  1.9627105365536033 13.7004135159197187   F   F   F
  2.4591823447219454  3.5681734124727456 19.0314949197681322   T   T   T
  5.1163682653592852  5.8913126838973673 20.7318042694922902   T   T   T
  4.8015985159297472  2.1692583186666594 21.7447949430274541   T   T   T
  5.1800900726018586  1.2616562799299562 17.8919232952461122   F   F   F
  0.3096972641924877  0.1137898312877549 13.7925008986651374   F   F   F
  2.8397564854017112  2.5031575507837212 15.5054569287487602   F   F   F
  5.2486964494604145  4.8445542782368225 17.0248490173363471   F   F   F
  5.5449471381874513  3.8786036620014279 13.2807167111244464   F   F   F
  1.0209086144155521  1.7205499012377006 19.5745593103889881   T   T   T
  6.7891201358282363  4.3615789701191252 15.2629470649045995   F   F   F
  6.6170431983631399 10.0000462106533892 21.2210942889899279   T   T   T
  9.1169824290140991 11.5581842708156728 19.5313471133027186   F   F   F
  4.0330599326889072  6.7604474036846423 16.4062800153329604   F   F   F
  6.8644991911326647  8.0689210947203733 14.3102770225503857   F   F   F
  5.0103569334678353  9.6312703482443762 19.6484161297981679   T   T   T
  7.6823007582074005 12.0407669751242175 21.3416656624499943   T   T   T
  7.4278558070559511  8.3101010291181865 22.3555702101182767   T   T   T
  7.7974303760688857  7.3678668380967265 18.5017868018767793   F   F   F
  2.9270375676595148  6.2200003894545253 14.4023644052958044   F   F   F
  5.4570967888687383  8.6093681089504912 16.1153204353794273   F   F   F
  7.8660367529274415 10.9507648364035930 17.6347125239670142   F   F   F
  8.1622874416544775  9.9848142201681984 13.8905802177551134   F   F   F
  3.6121149158528580  7.6361939347886105 20.2550645803242482   T   T   T
  9.4064604392952624 10.4677895282858948 15.8728105715352665   F   F   F
  9.2987665650493909  3.8662405464963605 21.0238214184666283   T   T   T
 11.7976635768489970  5.4519737126489014 19.3406842052285661   F   F   F
  6.7137410805238051  0.6542368455178713 16.2156171072588116   F   F   F
  9.5451803389675636  1.9627105365536033 14.1196141144762333   F   F   F
  7.7194518962882039  3.5215921163043760 19.4104438795952596   T   T   T
 10.3444748098534589  5.9058590213343356 21.1664186986367362   T   T   T
 10.0616162033419538  2.1132398706757227 22.0971659207177105   T   T   T
 10.4781115239037845  1.2616562799299562 18.3111238938026268   F   F   F
  5.6077187154944133  0.1137898312877549 14.2117014972216520   F   F   F
  8.1377779367036371  2.5031575507837212 15.9246575273052748   F   F   F
 10.5467179007623404  4.8445542782368225 17.4440496158928617   F   F   F
 10.8429685894893773  3.8786036620014279 13.6999173096809610   F   F   F
  6.2185669717871228  1.6871496714845309 20.0295522426669770   T   T   T
 12.0871415871301622  4.3615789701191252 15.6821476634611141   F   F   F
 11.9264096202925991  9.9716078575372453 21.6313652931665636   T   T   T
 14.4150038803160250 11.5581842708156728 19.9505477118592331   F   F   F
  9.3310813839908331  6.7604474036846423 16.8254806138894750   F   F   F
 12.1625206424345897  8.0689210947203733 14.7294776211069003   F   F   F
 10.3101246090274188  9.6259676147255018 20.0469907639209346   T   T   T
 12.9538911447767209 12.0203769327675509 21.7460061673037721   T   T   T
 12.6937716876042472  8.2495163666942517 22.7424562756271804   T   T   T
 13.0954518273708125  7.3678668380967265 18.9209874004332939   F   F   F
  8.2250590189614403  6.2200003894545253 14.8215650038523190   F   F   F
 10.7551182401706633  8.6093681089504912 16.5345210339359419   F   F   F
 13.1640582042293666 10.9507648364035930 18.0539131225235288   F   F   F
 13.4603088929564052  9.9848142201681984 14.3097808163116280   F   F   F
  8.8687473089853412  7.7018753059643528 20.6421973292961987   T   T   T
 14.7044818905971901 10.4677895282858948 16.2920111700917793   F   F   F
  2.8053650596221171  4.9505757550442295 23.0771607403086421   T   T   T
  2.3791954026718898  4.6720983847375726 22.2462417101490146   T   T   T
