Se Tl O                                 
   1.00000000000000     
    14.4232537018759395    0.0000000000000000    0.1330613426529288
     1.9664080866006213    8.6952780322739436    0.3546510662085637
     0.0000000000000000    0.0000000000000000   39.2909851637524525
   Se   Tl   O 
    24    16     1
Selective dynamics
Direct
  0.4123102593504839  0.7909011013389957  0.5762457837378321   T   T   T
  0.1499962999999980  0.1500055500000030  0.4499981499999990   F   F   F
  0.1000037000000020  0.3499944499999970  0.5500018500000010   F   F   F
  0.3500037000000020  0.7249944499999970  0.4250018500000010   F   F   F
  0.3388869062601216  0.5052863388550719  0.5558517687132252   T   T   T
  0.0864386300000035  0.8958426275000022  0.4331759175000016   F   F   F
  0.4641687088482698  0.0303667195069721  0.5885513161587070   T   T   T
  0.2074658424999996  0.4133006637500003  0.4637763187499999   F   F   F
  0.4135613699999965  0.9791573724999978  0.4418240824999984   F   F   F
  0.1721999620189578  0.5914115150980379  0.5672235593456207   T   T   T
  0.0425341575000004  0.0866993362499997  0.5362236812500001   F   F   F
  0.2925341575000004  0.4616993362499997  0.4112236812500001   F   F   F
  0.2992147861204373  0.1643916035449777  0.5246995680748086   T   T   T
  0.0484259824999995  0.5198510262500022  0.3982666712499991   F   F   F
  0.2419242624999995  0.7946236062499992  0.4969084512500004   F   F   F
  0.4809149102630812  0.4604245338112349  0.6149171279636292   T   T   T
  0.4515740175000005  0.3551489737499978  0.4767333287500009   F   F   F
  0.2095052677544658  0.9228603659311077  0.5969570235051691   T   T   T
  0.2580757375000005  0.0803763937500008  0.3780915487499996   F   F   F
  0.0080757375000005  0.7053763937500008  0.5030915487499996   F   F   F
  0.8970708880982485  0.8002619872595247  0.5740437915430050   T   T   T
  0.6499962999999980  0.1500055500000030  0.4499981499999990   F   F   F
  0.6000037000000020  0.3499944499999970  0.5500018500000010   F   F   F
  0.8500037000000020  0.7249944499999970  0.4250018500000010   F   F   F
  0.8280948947834048  0.5215403720511702  0.5509064066541356   T   T   T
  0.5864386300000035  0.8958426275000022  0.4331759175000016   F   F   F
  0.9686673158935690  0.0106129836731057  0.5916044710915358   T   T   T
  0.7074658424999996  0.4133006637500003  0.4637763187499999   F   F   F
  0.9135613700000036  0.9791573724999978  0.4418240824999984   F   F   F
  0.6622057446770597  0.5914123748061044  0.5648410871441882   T   T   T
  0.5425341575000004  0.0866993362499997  0.5362236812500001   F   F   F
  0.7925341575000004  0.4616993362499997  0.4112236812500001   F   F   F
  0.7995253404393523  0.1665696340508873  0.5227364391476144   T   T   T
  0.5484259824999995  0.5198510262500022  0.3982666712499991   F   F   F
  0.7419242624999995  0.7946236062499992  0.4969084512500004   F   F   F
  0.9471304737255082  0.4157969347953667  0.6131276888054842   T   T   T
  0.9515740175000005  0.3551489737499978  0.4767333287500009   F   F   F
  0.6977298301881945  0.0251215185088327  0.5997313996405396   T   T   T
  0.7580757375000005  0.0803763937500008  0.3780915487499996   F   F   F
  0.5080757375000005  0.7053763937500008  0.5030915487499996   F   F   F
  0.8744187901657909  0.1593112289827729  0.6009534717807199   T   T   T
 
  0.00000000E+00  0.00000000E+00  0.00000000E+00
  0.00000000E+00  0.00000000E+00  0.00000000E+00
  0.00000000E+00  0.00000000E+00  0.00000000E+00
  0.00000000E+00  0.00000000E+00  0.00000000E+00
  0.00000000E+00  0.00000000E+00  0.00000000E+00
  0.00000000E+00  0.00000000E+00  0.00000000E+00
  0.00000000E+00  0.00000000E+00  0.00000000E+00
  0.00000000E+00  0.00000000E+00  0.00000000E+00
  0.00000000E+00  0.00000000E+00  0.00000000E+00
  0.00000000E+00  0.00000000E+00  0.00000000E+00
  0.00000000E+00  0.00000000E+00  0.00000000E+00
  0.00000000E+00  0.00000000E+00  0.00000000E+00
  0.00000000E+00  0.00000000E+00  0.00000000E+00
  0.00000000E+00  0.00000000E+00  0.00000000E+00
  0.00000000E+00  0.00000000E+00  0.00000000E+00
  0.00000000E+00  0.00000000E+00  0.00000000E+00
  0.00000000E+00  0.00000000E+00  0.00000000E+00
  0.00000000E+00  0.00000000E+00  0.00000000E+00
  0.00000000E+00  0.00000000E+00  0.00000000E+00
  0.00000000E+00  0.00000000E+00  0.00000000E+00
  0.00000000E+00  0.00000000E+00  0.00000000E+00
  0.00000000E+00  0.00000000E+00  0.00000000E+00
  0.00000000E+00  0.00000000E+00  0.00000000E+00
  0.00000000E+00  0.00000000E+00  0.00000000E+00
  0.00000000E+00  0.00000000E+00  0.00000000E+00
  0.00000000E+00  0.00000000E+00  0.00000000E+00
  0.00000000E+00  0.00000000E+00  0.00000000E+00
  0.00000000E+00  0.00000000E+00  0.00000000E+00
  0.00000000E+00  0.00000000E+00  0.00000000E+00
  0.00000000E+00  0.00000000E+00  0.00000000E+00
  0.00000000E+00  0.00000000E+00  0.00000000E+00
  0.00000000E+00  0.00000000E+00  0.00000000E+00
  0.00000000E+00  0.00000000E+00  0.00000000E+00
  0.00000000E+00  0.00000000E+00  0.00000000E+00
  0.00000000E+00  0.00000000E+00  0.00000000E+00
  0.00000000E+00  0.00000000E+00  0.00000000E+00
  0.00000000E+00  0.00000000E+00  0.00000000E+00
  0.00000000E+00  0.00000000E+00  0.00000000E+00
  0.00000000E+00  0.00000000E+00  0.00000000E+00
  0.00000000E+00  0.00000000E+00  0.00000000E+00
  0.00000000E+00  0.00000000E+00  0.00000000E+00
