Se Tl O
 1.0000000000000000
    14.4232537018759395    0.0000000000000000    0.1330613426529288
     1.9664080866006213    8.6952780322739436    0.3546510662085637
     0.0000000000000000    0.0000000000000000   39.2909851637524525
Se Tl O
24 16 1
Selective dynamics
Cartesian
  7.5020897958725969  6.8771049721742239 22.9766210150722436   T   T   T
  2.4584068157976673  1.3043399636341702 17.7540289726817271   F   F   F
  2.1306106529716260  3.0432990525027996 21.7475470598382401   F   F   F
  6.4738271109158463  6.3040283146055325 17.0024333998606316   F   F   F
  5.8814509680070017  4.3936052022546388 22.0642566833269740   T   T   T
  3.0083184771701315  7.7896007192753158 17.3491217309501948   F   F   F
  6.7545364109928032  0.2640470690411904 23.1972935323659897   T   T   T
  3.8050502482463382  3.5937641822296156 18.3964116639272959   F   F   F
  7.8903235361439998  8.5140455912383235 17.7619917078007248   F   F   F
  3.6466401254503706  5.1424875552657996 22.5194303373281528   T   T   T
  0.7839672205229551  0.7538748339073544 21.1051643685926784   F   F   F
  5.1271836784671736  4.0146040960100828 16.3600507086150557   F   F   F
  4.6389117501477211  1.4294306989949412 20.7140785233102491   T   T   T
  1.7206994932057378  4.5202492086066917 15.8390992182807384   F   F   F
  5.0518892998104743  6.9094731873519253 19.8380274621865880   F   F   F
  7.8417402862950700  4.0035193343688036 24.3879809872424360   T   T   T
  7.2115344335077713  3.0881190696330085 18.9173631542616114   F   F   F
  4.8364677150722724  8.0245274667370783 23.8102000188987404   T   T   T
  3.8803446269030344  0.6988950908877771 14.9184349103557672   F   F   F
  1.5035362555594387  6.1334438610589892 20.0181996365419472   F   F   F
 14.5123226507544274  6.9585004778816293 22.9579253207134784   T   T   T
  9.6700336667356375  1.3043399636341702 17.8205596440081919   F   F   F
  9.3422375039095957  3.0432990525027996 21.8140777311647049   F   F   F
 13.6854539618538169  6.3040283146055325 17.0689640711870965   F   F   F
 12.9693839617794087  4.5349385400405477 21.9408077180264804   T   T   T
 10.2199453281081016  7.7896007192753158 17.4156524022766597   F   F   F
 13.9922039067658943  0.0922828437896543 23.3773785760791704   T   T   T
 11.0166770991843084  3.5937641822296156 18.4629423352537607   F   F   F
 15.1019503870819705  8.5140455912383235 17.8285223791271896   F   F   F
 10.7141195346513349  5.1424950306665069 22.4910217896532281   T   T   T
  7.9955940714609248  0.7538748339073544 21.1716950399191433   F   F   F
 12.3388105294051442  4.0146040960100828 16.4265813799415206   F   F   F
 11.8593007016152576  1.4483692798066052 20.7042896886995784   T   T   T
  8.9323263441437071  4.5202492086066917 15.9056298896072033   F   F   F
 12.2635161507484440  6.9094731873519253 19.9045581335130528   F   F   F
 14.4783295662863054  3.6154699530129908 24.3638802030948334   T   T   T
 14.4231612844457402  3.0881190696330085 18.9838938255880763   F   F   F
 12.0793415999151890  8.9137166203011535 24.0204388330591350   T   T   T
 11.0919714778410032  0.6988950908877771 14.9849655816822320   F   F   F
  8.7151631064974087  6.1334438610589892 20.0847303078684121   F   F   F
 14.8916430278072376 10.0805334619424301 24.1395562455286381   T   T   T
