Ni Te                                   
   1.00000000000000     
    11.8219139783511284    0.0000000000000000    0.0000000000000007
    -5.9109569891755687   10.2380778266064336    0.0000000000000007
     0.0000000000000000    0.0000000000000000   31.7872179599999996
   Ni   Te
    18    36
Selective dynamics
Direct
  0.0000000000000000  0.0000000000000000  0.4166666666666643   F   F   F
  0.2222222222222214  0.1111111111111143  0.4579143933333327   F   F   F
  0.1111111111111143  0.2222222222222214  0.3754189400000030   F   F   F
  0.0000000000000000  0.0000000000000000  0.5833333333333357   T   T   T
  0.2222222222222214  0.1111111111111143  0.6245810599999970   T   T   T
  0.1111111111111143  0.2222222222222214  0.5420856066666673   F   F   F
  0.0000000000000000  0.3333333333333357  0.4166666666666643   F   F   F
  0.2222222222222214  0.4444444444444429  0.4579143933333327   F   F   F
  0.1111111111111143  0.5555555555555571  0.3754189400000030   F   F   F
  0.0000000000000000  0.3333333333333357  0.5833333333333357   T   T   T
  0.2222222222222214  0.4444444444444429  0.6245810599999970   T   T   T
  0.1111111111111143  0.5555555555555571  0.5420856066666673   F   F   F
  0.0000000000000000  0.6666666666666643  0.4166666666666643   F   F   F
  0.2222222222222214  0.7777777777777786  0.4579143933333327   F   F   F
  0.1111111111111143  0.8888888888888857  0.3754189400000030   F   F   F
  0.0000000000000000  0.6666666666666643  0.5833333333333357   T   T   T
  0.2222222222222214  0.7777777777777786  0.6245810599999970   T   T   T
  0.1111111111111143  0.8888888888888857  0.5420856066666673   F   F   F
  0.3333333333333357  0.0000000000000000  0.4166666666666643   F   F   F
  0.5555555555555571  0.1111111111111143  0.4579143933333327   F   F   F
  0.4444444444444429  0.2222222222222214  0.3754189400000030   F   F   F
  0.3333333333333357  0.0000000000000000  0.5833333333333357   T   T   T
  0.5555555555555571  0.1111111111111143  0.6245810599999970   T   T   T
  0.4444444444444429  0.2222222222222214  0.5420856066666673   F   F   F
  0.3333333333333357  0.3333333333333357  0.4166666666666643   F   F   F
  0.5555555555555571  0.4444444444444429  0.4579143933333327   F   F   F
  0.4444444444444429  0.5555555555555571  0.3754189400000030   F   F   F
  0.3333333333333357  0.3333333333333357  0.5833333333333357   T   T   T
  0.5555555555555571  0.4444444444444429  0.6245810599999970   T   T   T
  0.4444444444444429  0.5555555555555571  0.5420856066666673   F   F   F
  0.3333333333333357  0.6666666666666643  0.4166666666666643   F   F   F
  0.5555555555555571  0.7777777777777786  0.4579143933333327   F   F   F
  0.4444444444444429  0.8888888888888857  0.3754189400000030   F   F   F
  0.3333333333333357  0.6666666666666643  0.5833333333333357   T   T   T
  0.5555555555555571  0.7777777777777786  0.6245810599999970   T   T   T
  0.4444444444444429  0.8888888888888857  0.5420856066666673   F   F   F
  0.6666666666666643  0.0000000000000000  0.4166666666666643   F   F   F
  0.8888888888888857  0.1111111111111143  0.4579143933333327   F   F   F
  0.7777777777777786  0.2222222222222214  0.3754189400000030   F   F   F
  0.6666666666666643  0.0000000000000000  0.5833333333333357   T   T   T
  0.8888888888888857  0.1111111111111143  0.6245810599999970   T   T   T
  0.7777777777777786  0.2222222222222214  0.5420856066666673   F   F   F
  0.6666666666666643  0.3333333333333357  0.4166666666666643   F   F   F
  0.8888888888888857  0.4444444444444429  0.4579143933333327   F   F   F
  0.7777777777777786  0.5555555555555571  0.3754189400000030   F   F   F
  0.6666666666666643  0.3333333333333357  0.5833333333333357   T   T   T
  0.8888888888888857  0.4444444444444429  0.6245810599999970   T   T   T
  0.7777777777777786  0.5555555555555571  0.5420856066666673   F   F   F
  0.6666666666666643  0.6666666666666643  0.4166666666666643   F   F   F
  0.8888888888888857  0.7777777777777786  0.4579143933333327   F   F   F
  0.7777777777777786  0.8888888888888857  0.3754189400000030   F   F   F
  0.6666666666666643  0.6666666666666643  0.5833333333333357   T   T   T
  0.8888888888888857  0.7777777777777786  0.6245810599999970   T   T   T
  0.7777777777777786  0.8888888888888857  0.5420856066666673   F   F   F
 
  0.00000000E+00  0.00000000E+00  0.00000000E+00
  0.00000000E+00  0.00000000E+00  0.00000000E+00
  0.00000000E+00  0.00000000E+00  0.00000000E+00
  0.00000000E+00  0.00000000E+00  0.00000000E+00
  0.00000000E+00  0.00000000E+00  0.00000000E+00
  0.00000000E+00  0.00000000E+00  0.00000000E+00
  0.00000000E+00  0.00000000E+00  0.00000000E+00
  0.00000000E+00  0.00000000E+00  0.00000000E+00
  0.00000000E+00  0.00000000E+00  0.00000000E+00
  0.00000000E+00  0.00000000E+00  0.00000000E+00
  0.00000000E+00  0.00000000E+00  0.00000000E+00
  0.00000000E+00  0.00000000E+00  0.00000000E+00
  0.00000000E+00  0.00000000E+00  0.00000000E+00
  0.00000000E+00  0.00000000E+00  0.00000000E+00
  0.00000000E+00  0.00000000E+00  0.00000000E+00
  0.00000000E+00  0.00000000E+00  0.00000000E+00
  0.00000000E+00  0.00000000E+00  0.00000000E+00
  0.00000000E+00  0.00000000E+00  0.00000000E+00
  0.00000000E+00  0.00000000E+00  0.00000000E+00
  0.00000000E+00  0.00000000E+00  0.00000000E+00
  0.00000000E+00  0.00000000E+00  0.00000000E+00
  0.00000000E+00  0.00000000E+00  0.00000000E+00
  0.00000000E+00  0.00000000E+00  0.00000000E+00
  0.00000000E+00  0.00000000E+00  0.00000000E+00
  0.00000000E+00  0.00000000E+00  0.00000000E+00
  0.00000000E+00  0.00000000E+00  0.00000000E+00
  0.00000000E+00  0.00000000E+00  0.00000000E+00
  0.00000000E+00  0.00000000E+00  0.00000000E+00
  0.00000000E+00  0.00000000E+00  0.00000000E+00
  0.00000000E+00  0.00000000E+00  0.00000000E+00
  0.00000000E+00  0.00000000E+00  0.00000000E+00
  0.00000000E+00  0.00000000E+00  0.00000000E+00
  0.00000000E+00  0.00000000E+00  0.00000000E+00
  0.00000000E+00  0.00000000E+00  0.00000000E+00
  0.00000000E+00  0.00000000E+00  0.00000000E+00
  0.00000000E+00  0.00000000E+00  0.00000000E+00
  0.00000000E+00  0.00000000E+00  0.00000000E+00
  0.00000000E+00  0.00000000E+00  0.00000000E+00
  0.00000000E+00  0.00000000E+00  0.00000000E+00
  0.00000000E+00  0.00000000E+00  0.00000000E+00
  0.00000000E+00  0.00000000E+00  0.00000000E+00
  0.00000000E+00  0.00000000E+00  0.00000000E+00
  0.00000000E+00  0.00000000E+00  0.00000000E+00
  0.00000000E+00  0.00000000E+00  0.00000000E+00
  0.00000000E+00  0.00000000E+00  0.00000000E+00
  0.00000000E+00  0.00000000E+00  0.00000000E+00
  0.00000000E+00  0.00000000E+00  0.00000000E+00
  0.00000000E+00  0.00000000E+00  0.00000000E+00
  0.00000000E+00  0.00000000E+00  0.00000000E+00
  0.00000000E+00  0.00000000E+00  0.00000000E+00
  0.00000000E+00  0.00000000E+00  0.00000000E+00
  0.00000000E+00  0.00000000E+00  0.00000000E+00
  0.00000000E+00  0.00000000E+00  0.00000000E+00
  0.00000000E+00  0.00000000E+00  0.00000000E+00
