Ni Te
 1.0000000000000000
    11.8219139783511284    0.0000000000000000    0.0000000000000007
    -5.9109569891755687   10.2380778266064336    0.0000000000000007
     0.0000000000000000    0.0000000000000000   31.7872179599999996
Ni Te
18 36
Selective dynamics
Cartesian
  0.0000000000000000  0.0000000000000000 13.2446741499999998   F   F   F
  1.9703189963918541  1.1375642029562705 14.5558246279078389   F   F   F
 -0.0000000000000009  2.2751284059125405 11.9335236720921625   F   F   F
  0.0000000000000000  0.0000000000000000 18.5425438100000015   T   T   T
  1.9703189963918541  1.1375642029562705 19.8536942879078389   T   T   T
 -0.0000000000000009  2.2751284059125405 17.2313933320921642   F   F   F
 -1.9703189963918561  3.4126926088688112 13.2446741499999998   F   F   F
 -0.0000000000000020  4.5502568118250819 14.5558246279078389   F   F   F
 -1.9703189963918570  5.6878210147813517 11.9335236720921625   F   F   F
 -1.9703189963918561  3.4126926088688112 18.5425438100000015   T   T   T
 -0.0000000000000020  4.5502568118250819 19.8536942879078389   T   T   T
 -1.9703189963918570  5.6878210147813517 17.2313933320921642   F   F   F
 -3.9406379927837123  6.8253852177376224 13.2446741499999998   F   F   F
 -1.9703189963918581  7.9629494206938931 14.5558246279078389   F   F   F
 -3.9406379927837132  9.1005136236501620 11.9335236720921625   F   F   F
 -3.9406379927837123  6.8253852177376224 18.5425438100000015   T   T   T
 -1.9703189963918581  7.9629494206938931 19.8536942879078389   T   T   T
 -3.9406379927837132  9.1005136236501620 17.2313933320921642   F   F   F
  3.9406379927837096  0.0000000000000000 13.2446741499999998   F   F   F
  5.9109569891755633  1.1375642029562705 14.5558246279078389   F   F   F
  3.9406379927837087  2.2751284059125405 11.9335236720921625   F   F   F
  3.9406379927837096  0.0000000000000000 18.5425438100000015   T   T   T
  5.9109569891755633  1.1375642029562705 19.8536942879078389   T   T   T
  3.9406379927837087  2.2751284059125405 17.2313933320921642   F   F   F
  1.9703189963918535  3.4126926088688112 13.2446741499999998   F   F   F
  3.9406379927837074  4.5502568118250819 14.5558246279078389   F   F   F
  1.9703189963918526  5.6878210147813517 11.9335236720921625   F   F   F
  1.9703189963918535  3.4126926088688112 18.5425438100000015   T   T   T
  3.9406379927837074  4.5502568118250819 19.8536942879078389   T   T   T
  1.9703189963918526  5.6878210147813517 17.2313933320921642   F   F   F
 -0.0000000000000027  6.8253852177376224 13.2446741499999998   F   F   F
  1.9703189963918515  7.9629494206938931 14.5558246279078389   F   F   F
 -0.0000000000000036  9.1005136236501620 11.9335236720921625   F   F   F
 -0.0000000000000027  6.8253852177376224 18.5425438100000015   T   T   T
  1.9703189963918515  7.9629494206938931 19.8536942879078389   T   T   T
 -0.0000000000000036  9.1005136236501620 17.2313933320921642   F   F   F
  7.8812759855674193  0.0000000000000000 13.2446741499999998   F   F   F
  9.8515949819592734  1.1375642029562705 14.5558246279078389   F   F   F
  7.8812759855674184  2.2751284059125405 11.9335236720921625   F   F   F
  7.8812759855674193  0.0000000000000000 18.5425438100000015   T   T   T
  9.8515949819592734  1.1375642029562705 19.8536942879078389   T   T   T
  7.8812759855674184  2.2751284059125405 17.2313933320921642   F   F   F
  5.9109569891755633  3.4126926088688112 13.2446741499999998   F   F   F
  7.8812759855674175  4.5502568118250819 14.5558246279078389   F   F   F
  5.9109569891755624  5.6878210147813517 11.9335236720921625   F   F   F
  5.9109569891755633  3.4126926088688112 18.5425438100000015   T   T   T
  7.8812759855674175  4.5502568118250819 19.8536942879078389   T   T   T
  5.9109569891755624  5.6878210147813517 17.2313933320921642   F   F   F
  3.9406379927837070  6.8253852177376224 13.2446741500000016   F   F   F
  5.9109569891755616  7.9629494206938931 14.5558246279078407   F   F   F
  3.9406379927837061  9.1005136236501620 11.9335236720921642   F   F   F
  3.9406379927837070  6.8253852177376224 18.5425438100000015   T   T   T
  5.9109569891755616  7.9629494206938931 19.8536942879078389   T   T   T
  3.9406379927837061  9.1005136236501620 17.2313933320921642   F   F   F
