Co Te Pd H O                            
   1.00000000000000     
    10.5874116772654627    0.0000000000000000    0.0000000000000006
    -0.0000000000000008   12.7555817893690921    0.0000000000000008
     0.0000000000000000    0.0000000000000000   33.8815957568399924
   Co   Te   Pd   H    O 
    16    32    32     1     1
Selective dynamics
Direct
  0.1240905577740605  0.9998352821007614  0.5834345704695565   T   T   T
  0.3743413745925253  0.0004291423404439  0.5834806424027690   T   T   T
  0.3750000000000000  0.2500000000000000  0.4166666666666643   F   F   F
  0.1250000000000000  0.2500000000000000  0.4166666666666643   F   F   F
  0.0000000000000000  0.1425324025000023  0.3686838316666652   F   F   F
  0.2484688713261036  0.1087655977087394  0.6328300326378979   T   T   T
  0.9983864208609603  0.3886329036140879  0.6329712413622346   T   T   T
  0.2500000000000000  0.3574675974999977  0.3686838316666652   F   F   F
  0.2500000000000000  0.3925324025000023  0.5353504983333366   F   F   F
  0.0000000000000000  0.3574675974999977  0.4646495016666634   F   F   F
  0.2500000000000000  0.1425324025000023  0.4646495016666634   F   F   F
  0.0000000000000000  0.1074675974999977  0.5353504983333366   F   F   F
  0.2504632018419457  0.3140653081362004  0.6163125296475442   T   T   T
  0.2500000000000000  0.0662525600000023  0.3813663766666693   F   F   F
  0.9990377417610574  0.1832767017545294  0.6161825291905174   T   T   T
  0.0000000000000000  0.4337474399999977  0.3813663766666693   F   F   F
  0.0000000000000000  0.0662525600000023  0.4519669566666664   F   F   F
  0.0000000000000000  0.3162525600000023  0.5480330433333336   F   F   F
  0.2500000000000000  0.4337474399999977  0.4519669566666664   F   F   F
  0.2500000000000000  0.1837474399999977  0.5480330433333336   F   F   F
  0.1247264528730980  0.4984248264895825  0.5841952498389702   T   T   T
  0.3749257810980495  0.4988919882727316  0.5839008863841997   T   T   T
  0.3750000000000000  0.7500000000000000  0.4166666666666643   F   F   F
  0.1250000000000000  0.7500000000000000  0.4166666666666643   F   F   F
  0.0000000000000000  0.6425324025000023  0.3686838316666652   F   F   F
  0.2499320989683511  0.6114788941195570  0.6303141787792299   T   T   T
  0.9962561522536078  0.8900121245741701  0.6319068877480305   T   T   T
  0.2500000000000000  0.8574675974999977  0.3686838316666652   F   F   F
  0.2500000000000000  0.8925324025000023  0.5353504983333366   F   F   F
  0.0000000000000000  0.8574675974999977  0.4646495016666634   F   F   F
  0.2500000000000000  0.6425324025000023  0.4646495016666634   F   F   F
  0.0000000000000000  0.6074675974999977  0.5353504983333366   F   F   F
  0.2485191782403788  0.8196121371064535  0.6170900502611616   T   T   T
  0.2500000000000000  0.5662525600000023  0.3813663766666693   F   F   F
  0.0003557474178777  0.6828544556710696  0.6157550277070385   T   T   T
  0.0000000000000000  0.9337474399999977  0.3813663766666693   F   F   F
  0.0000000000000000  0.5662525600000023  0.4519669566666664   F   F   F
  0.0000000000000000  0.8162525600000023  0.5480330433333336   F   F   F
  0.2500000000000000  0.9337474399999977  0.4519669566666664   F   F   F
  0.2500000000000000  0.6837474399999977  0.5480330433333336   F   F   F
  0.6250420445169595  0.0001796447178180  0.5834199953539141   T   T   T
  0.8739097620524987  0.0002128012961506  0.5832349493208753   T   T   T
  0.8750000000000000  0.2500000000000000  0.4166666666666643   F   F   F
  0.6250000000000000  0.2500000000000000  0.4166666666666643   F   F   F
  0.5000000000000000  0.1425324025000023  0.3686838316666652   F   F   F
  0.7497270009914558  0.1094295867834916  0.6326528235916342   T   T   T
  0.4999188000881034  0.3893205157643678  0.6326772283399862   T   T   T
  0.7500000000000000  0.3574675974999977  0.3686838316666652   F   F   F
  0.7500000000000000  0.3925324025000023  0.5353504983333366   F   F   F
  0.5000000000000000  0.3574675974999977  0.4646495016666634   F   F   F
  0.7500000000000000  0.1425324025000023  0.4646495016666634   F   F   F
  0.5000000000000000  0.1074675974999977  0.5353504983333366   F   F   F
  0.7486831156113425  0.3150285566660500  0.6160942023272113   T   T   T
  0.7500000000000000  0.0662525600000023  0.3813663766666693   F   F   F
  0.4989051819281372  0.1834978259093489  0.6159781225083236   T   T   T
  0.5000000000000000  0.4337474399999977  0.3813663766666693   F   F   F
  0.5000000000000000  0.0662525600000023  0.4519669566666664   F   F   F
  0.5000000000000000  0.3162525600000023  0.5480330433333336   F   F   F
  0.7500000000000000  0.4337474399999977  0.4519669566666664   F   F   F
  0.7500000000000000  0.1837474399999977  0.5480330433333336   F   F   F
  0.6251036109278729  0.4998572539845085  0.5835876307103618   T   T   T
  0.8749452576149963  0.4992215082524964  0.5836158036482928   T   T   T
  0.8750000000000000  0.7500000000000000  0.4166666666666643   F   F   F
  0.6250000000000000  0.7500000000000000  0.4166666666666643   F   F   F
  0.5000000000000000  0.6425324025000023  0.3686838316666652   F   F   F
  0.7496462326335944  0.6080377843407661  0.6327202994717496   T   T   T
  0.5006700150401713  0.8919715554182304  0.6324019943159627   T   T   T
  0.7500000000000000  0.8574675974999977  0.3686838316666652   F   F   F
  0.7500000000000000  0.8925324025000023  0.5353504983333366   F   F   F
  0.5000000000000000  0.8574675974999977  0.4646495016666634   F   F   F
  0.7500000000000000  0.6425324025000023  0.4646495016666634   F   F   F
  0.5000000000000000  0.6074675974999977  0.5353504983333366   F   F   F
  0.7471533164029225  0.8143494258248651  0.6161088640190755   T   T   T
  0.7500000000000000  0.5662525600000023  0.3813663766666693   F   F   F
  0.4965142254766590  0.6848931563463552  0.6164339386625457   T   T   T
  0.5000000000000000  0.9337474399999977  0.3813663766666693   F   F   F
  0.5000000000000000  0.5662525600000023  0.4519669566666664   F   F   F
  0.5000000000000000  0.8162525600000023  0.5480330433333336   F   F   F
  0.7500000000000000  0.9337474399999977  0.4519669566666664   F   F   F
  0.7500000000000000  0.6837474399999977  0.5480330433333336   F   F   F
  0.1688073757168098  0.5298329298704516  0.6937145575658477   T   T   T
  0.2534313245149704  0.5565214937989822  0.6877673863270815   T   T   T
 
  0.00000000E+00  0.00000000E+00  0.00000000E+00
  0.00000000E+00  0.00000000E+00  0.00000000E+00
  0.00000000E+00  0.00000000E+00  0.00000000E+00
  0.00000000E+00  0.00000000E+00  0.00000000E+00
  0.00000000E+00  0.00000000E+00  0.00000000E+00
  0.00000000E+00  0.00000000E+00  0.00000000E+00
  0.00000000E+00  0.00000000E+00  0.00000000E+00
  0.00000000E+00  0.00000000E+00  0.00000000E+00
  0.00000000E+00  0.00000000E+00  0.00000000E+00
  0.00000000E+00  0.00000000E+00  0.00000000E+00
  0.00000000E+00  0.00000000E+00  0.00000000E+00
  0.00000000E+00  0.00000000E+00  0.00000000E+00
  0.00000000E+00  0.00000000E+00  0.00000000E+00
  0.00000000E+00  0.00000000E+00  0.00000000E+00
  0.00000000E+00  0.00000000E+00  0.00000000E+00
  0.00000000E+00  0.00000000E+00  0.00000000E+00
  0.00000000E+00  0.00000000E+00  0.00000000E+00
  0.00000000E+00  0.00000000E+00  0.00000000E+00
  0.00000000E+00  0.00000000E+00  0.00000000E+00
  0.00000000E+00  0.00000000E+00  0.00000000E+00
  0.00000000E+00  0.00000000E+00  0.00000000E+00
  0.00000000E+00  0.00000000E+00  0.00000000E+00
  0.00000000E+00  0.00000000E+00  0.00000000E+00
  0.00000000E+00  0.00000000E+00  0.00000000E+00
  0.00000000E+00  0.00000000E+00  0.00000000E+00
  0.00000000E+00  0.00000000E+00  0.00000000E+00
  0.00000000E+00  0.00000000E+00  0.00000000E+00
  0.00000000E+00  0.00000000E+00  0.00000000E+00
  0.00000000E+00  0.00000000E+00  0.00000000E+00
  0.00000000E+00  0.00000000E+00  0.00000000E+00
  0.00000000E+00  0.00000000E+00  0.00000000E+00
  0.00000000E+00  0.00000000E+00  0.00000000E+00
  0.00000000E+00  0.00000000E+00  0.00000000E+00
  0.00000000E+00  0.00000000E+00  0.00000000E+00
  0.00000000E+00  0.00000000E+00  0.00000000E+00
  0.00000000E+00  0.00000000E+00  0.00000000E+00
  0.00000000E+00  0.00000000E+00  0.00000000E+00
  0.00000000E+00  0.00000000E+00  0.00000000E+00
  0.00000000E+00  0.00000000E+00  0.00000000E+00
  0.00000000E+00  0.00000000E+00  0.00000000E+00
  0.00000000E+00  0.00000000E+00  0.00000000E+00
  0.00000000E+00  0.00000000E+00  0.00000000E+00
  0.00000000E+00  0.00000000E+00  0.00000000E+00
  0.00000000E+00  0.00000000E+00  0.00000000E+00
  0.00000000E+00  0.00000000E+00  0.00000000E+00
  0.00000000E+00  0.00000000E+00  0.00000000E+00
  0.00000000E+00  0.00000000E+00  0.00000000E+00
  0.00000000E+00  0.00000000E+00  0.00000000E+00
  0.00000000E+00  0.00000000E+00  0.00000000E+00
  0.00000000E+00  0.00000000E+00  0.00000000E+00
  0.00000000E+00  0.00000000E+00  0.00000000E+00
  0.00000000E+00  0.00000000E+00  0.00000000E+00
  0.00000000E+00  0.00000000E+00  0.00000000E+00
  0.00000000E+00  0.00000000E+00  0.00000000E+00
  0.00000000E+00  0.00000000E+00  0.00000000E+00
  0.00000000E+00  0.00000000E+00  0.00000000E+00
  0.00000000E+00  0.00000000E+00  0.00000000E+00
  0.00000000E+00  0.00000000E+00  0.00000000E+00
  0.00000000E+00  0.00000000E+00  0.00000000E+00
  0.00000000E+00  0.00000000E+00  0.00000000E+00
  0.00000000E+00  0.00000000E+00  0.00000000E+00
  0.00000000E+00  0.00000000E+00  0.00000000E+00
  0.00000000E+00  0.00000000E+00  0.00000000E+00
  0.00000000E+00  0.00000000E+00  0.00000000E+00
  0.00000000E+00  0.00000000E+00  0.00000000E+00
  0.00000000E+00  0.00000000E+00  0.00000000E+00
  0.00000000E+00  0.00000000E+00  0.00000000E+00
  0.00000000E+00  0.00000000E+00  0.00000000E+00
  0.00000000E+00  0.00000000E+00  0.00000000E+00
  0.00000000E+00  0.00000000E+00  0.00000000E+00
  0.00000000E+00  0.00000000E+00  0.00000000E+00
  0.00000000E+00  0.00000000E+00  0.00000000E+00
  0.00000000E+00  0.00000000E+00  0.00000000E+00
  0.00000000E+00  0.00000000E+00  0.00000000E+00
  0.00000000E+00  0.00000000E+00  0.00000000E+00
  0.00000000E+00  0.00000000E+00  0.00000000E+00
  0.00000000E+00  0.00000000E+00  0.00000000E+00
  0.00000000E+00  0.00000000E+00  0.00000000E+00
  0.00000000E+00  0.00000000E+00  0.00000000E+00
  0.00000000E+00  0.00000000E+00  0.00000000E+00
  0.00000000E+00  0.00000000E+00  0.00000000E+00
  0.00000000E+00  0.00000000E+00  0.00000000E+00
