Co Te Pd H O
 1.0000000000000000
    10.5874116772654627    0.0000000000000000    0.0000000000000006
    -0.0000000000000008   12.7555817893690921    0.0000000000000008
     0.0000000000000000    0.0000000000000000   33.8815957568399924
Co Te Pd H O
16 32 32 1 1
Selective dynamics
Cartesian
  1.3137978204154916 -0.0021010726359236 19.7676942672151874   T   T   T
  3.9633062406444806  0.0054739602228437 19.7692552578319685   T   T   T
  3.9702793789745483  3.1888954473422730 14.1173315653499980   F   F   F
  1.3234264596581833  3.1888954473422730 14.1173315653499980   F   F   F
 -0.0000000000000001  1.8180837177240270 12.4915965466128434   F   F   F
  2.6306422297149719  1.3873684774434809 21.4412913486250645   T   T   T
 -0.0170836266188420  4.9572387880894571 21.4460757255403323   T   T   T
  2.6468529193163652  4.5597071769605195 12.4915965466128434   F   F   F
  2.6468529193163652  5.0069791650662996 18.1385291727528433   F   F   F
 -0.0000000000000003  4.5597071769605195 15.7430665840871526   F   F   F
  2.6468529193163657  1.8180837177240270 15.7430665840871526   F   F   F
 -0.0000000000000001  1.3708117296182467 18.1385291727528433   F   F   F
  2.6517570279067462  4.0060857251347128 20.8816519893935215   T   T   T
  2.6468529193163657  0.8450899478350833 12.9213014094707770   F   F   F
 -0.0101878241155193  2.3378009593156919 20.8772473664603417   T   T   T
 -0.0000000000000003  5.5327009468494630 12.9213014094707770   F   F   F
 -0.0000000000000001  0.8450899478350833 15.3133617212292190   F   F   F
 -0.0000000000000002  4.0339853951773561 18.5682340356107751   F   F   F
  2.6468529193163652  5.5327009468494630 15.3133617212292190   F   F   F
  2.6468529193163657  2.3438054995071895 18.5682340356107751   F   F   F
  1.3205303036125748  6.3576986401399669 19.7934672981101123   T   T   T
  3.9694935929053750  6.3636575604737633 19.7834937945299991   T   T   T
  3.9702793789745479  9.5666863420268200 14.1173315653499980   F   F   F
  1.3234264596581828  9.5666863420268200 14.1173315653499980   F   F   F
 -0.0000000000000005  8.1958746124085735 12.4915965466128434   F   F   F
  2.6461340231409798  7.7997690464149390 21.3560502052025285   T   T   T
 -0.0396376573480673 11.3526224485359499 21.4100137266416013   T   T   T
  2.6468529193163648 10.9374980716450665 12.4915965466128434   F   F   F
  2.6468529193163648 11.3847700597508457 18.1385291727528433   F   F   F
 -0.0000000000000007 10.9374980716450665 15.7430665840871526   F   F   F
  2.6468529193163652  8.1958746124085735 15.7430665840871526   F   F   F
 -0.0000000000000005  7.7486026243027926 18.1385291727528433   F   F   F
  2.6311748497266252 10.4546296504209941 20.9079956285168187   T   T   T
  2.6468529193163652  7.2228808425196291 12.9213014094707770   F   F   F
  0.0037664443661919  8.7102058595474290 20.8627629340117160   T   T   T
 -0.0000000000000007 11.9104918415340091 12.9213014094707770   F   F   F
 -0.0000000000000004  7.2228808425196291 15.3133617212292190   F   F   F
 -0.0000000000000006 10.4117762898619013 18.5682340356107751   F   F   F
  2.6468529193163648 11.9104918415340091 15.3133617212292190   F   F   F
  2.6468529193163652  8.7215963941917352 18.5682340356107751   F   F   F
  6.6175774409007211  0.0022914728911587 19.7672004390388558   T   T   T
  9.2524424196309329  0.0027144043378939 19.7609307841508546   T   T   T
  9.2639852176072797  3.1888954473422730 14.1173315653499980   F   F   F
  6.6171322982909144  3.1888954473422730 14.1173315653499980   F   F   F
  5.2937058386327314  1.8180837177240270 12.4915965466128434   F   F   F
  7.9376684050581243  1.3958380443937062 21.4352872233550542   T   T   T
  5.2928461417373134  4.9660096811117587 21.4361140951734441   T   T   T
  7.9405587579490966  4.5597071769605195 12.4915965466128434   F   F   F
  7.9405587579490966  5.0069791650662996 18.1385291727528433   F   F   F
  5.2937058386327314  4.5597071769605195 15.7430665840871526   F   F   F
  7.9405587579490966  1.8180837177240270 15.7430665840871526   F   F   F
  5.2937058386327314  1.3708117296182467 18.1385291727528433   F   F   F
  7.9266163607950002  4.0183725205407113 20.8742547113834185   T   T   T
  7.9405587579490966  0.8450899478350833 12.9213014094707770   F   F   F
  5.2821145489942429  2.3406215265581438 20.8703217418842719   T   T   T
  5.2937058386327314  5.5327009468494630 12.9213014094707770   F   F   F
  5.2937058386327314  0.8450899478350833 15.3133617212292190   F   F   F
  5.2937058386327314  4.0339853951773561 18.5682340356107751   F   F   F
  7.9405587579490966  5.5327009468494630 15.3133617212292190   F   F   F
  7.9405587579490966  2.3438054995071895 18.5682340356107751   F   F   F
  6.6182292698385830  6.3759700862088327 19.7728801924204838   T   T   T
  9.2634056374410481  6.3678607795268878 19.7738347365146971   T   T   T
  9.2639852176072797  9.5666863420268200 14.1173315653499980   F   F   F
  6.6171322982909144  9.5666863420268200 14.1173315653499980   F   F   F
  5.2937058386327314  8.1958746124085735 12.4915965466128434   F   F   F
  7.9368132772029494  7.7558756891854035 21.4375734138486322   T   T   T
  5.3007995636929897 11.3776161289280218 21.4267887272328252   T   T   T
  7.9405587579490966 10.9374980716450665 12.4915965466128434   F   F   F
  7.9405587579490966 11.3847700597508457 18.1385291727528433   F   F   F
  5.2937058386327314 10.9374980716450665 15.7430665840871526   F   F   F
  7.9405587579490966  8.1958746124085735 15.7430665840871526   F   F   F
  5.2937058386327314  7.7486026243027926 18.1385291727528433   F   F   F
  7.9104197467919075 10.3875007062348423 20.8747514729002610   T   T   T
  7.9405587579490966  7.2228808425196291 12.9213014094707770   F   F   F
  5.2568005087399703  8.7362106727551208 20.8857655205611259   T   T   T
  5.2937058386327314 11.9104918415340091 12.9213014094707770   F   F   F
  5.2937058386327314  7.2228808425196291 15.3133617212292190   F   F   F
  5.2937058386327314 10.4117762898619013 18.5682340356107751   F   F   F
  7.9405587579490966 11.9104918415340091 15.3133617212292190   F   F   F
  7.9405587579490966  8.7215963941917352 18.5682340356107751   F   F   F
  1.7872331808726780  6.7583272716636174 23.5041562100811738   T   T   T
  2.6831817645546261  7.0987554316947943 23.3026565582724992   T   T   T
