Ag Te Au O
 1.0000000000000000
     9.1566205876652838   -0.0000000000000000   -0.0000000000000006
     5.7925099915124116    8.6088790334152616   -0.0000000000000004
    -0.0000000000000000    0.0000000000000040   32.3607326699999973
Ag Te Au O
4 16 4 1
Selective dynamics
Cartesian
  6.7171968554470407  1.9790868572447866 19.7675091463781243   T   T   T
  9.4391899913086323  5.8009895250869219 20.4602151691380172   T   T   T
 10.8667614523473546  3.6725827284723231 20.1034652931303199   T   T   T
  2.2922152450745510  0.4396091891230538 20.5151097419548378   T   T   T
  7.4817293962152682  5.8354479984393670 18.1301629724990327   T   T   T
 11.9136699875790946  6.5965542138850868 18.0884877260182968   T   T   T
  8.9853543908710787  2.2984718215183220 18.3557050672210380   T   T   T
  4.3621540824514540  1.3948659138838841 18.6396602730713994   T   T   T
 13.6711607678245919  8.0250012690404890 16.3663791549196596   F   F   F
  5.6825273655441926  4.4990654381658901 16.3663791549196596   F   F   F
  3.6872417932681856  4.0421817592255822 18.2293883895895092   T   T   T
  6.4874553785832880  8.3484029749080229 18.3390294628283961   T   T   T
  6.7805890709281851  1.9575938368955603 15.8095469183561388   F   F   F
  9.6768440666843905  6.2620333536031891 15.9943535150803360   F   F   F
 10.7749057720683865  3.7205617523328565 15.4375212785168099   F   F   F
  2.7862723697879868  0.1946259214582600 15.4375212785168099   F   F   F
  7.5561789838868183  5.8752613843810364 13.4466467970170864   F   F   F
 11.7975091494819644  6.6488053228253401 13.4466467970170864   F   F   F
  8.9012541537257572  2.3443658061177093 13.7342918264193887   F   F   F
  4.6599239881306147  1.5708218676734087 13.7342918264193887   F   F   F
 13.6711607678245919  8.0250012690404890 11.7434173449196599   F   F   F
  5.6825273655441908  4.4990654381658892 11.7434173449196617   F   F   F
  3.6504062749736477  4.1098135952493751 13.5904693117182358   F   F   F
  6.5466612707298522  8.4142531119570041 13.5904693117182358   F   F   F
  8.7482732424970244  7.5211612142224853 21.4398245491890478   T   T   T
