Ge Se H O                               
   1.00000000000000     
    11.7750813299999990    0.0000000000000000    0.0000000000000007
    -0.0000000000000006    9.2101966599999994    0.0000000000000006
     0.0000000000000000    0.0000000000000000   33.8324215200000040
   Ge   Se   H    O 
    24    24     1     1
Selective dynamics
Direct
  0.2500000000000000  0.4413367200000025  0.3750034700000029   F   F   F
  0.0825809202706438  0.1026454048305467  0.6262051655543743   T   T   T
  0.0833333333333357  0.1913367200000025  0.4583298633333328   F   F   F
  0.2500000000000000  0.3086632799999975  0.5416701366666672   F   F   F
  0.2594701300227769  0.2659671678225450  0.6191315697258801   T   T   T
  0.0833333333333357  0.2521648049999996  0.3826121666666680   F   F   F
  0.0833333333333357  0.4978351950000004  0.5492788333333323   F   F   F
  0.2500000000000000  0.0021648049999996  0.4507211666666677   F   F   F
  0.2500000000000000  0.9413367200000025  0.3750034700000029   F   F   F
  0.0825394459739357  0.5604839876944538  0.6235195351986675   T   T   T
  0.0833333333333357  0.6913367200000025  0.4583298633333328   F   F   F
  0.2500000000000000  0.8086632799999975  0.5416701366666672   F   F   F
  0.2482383850565171  0.7486223569360533  0.6173317961562503   T   T   T
  0.0833333333333357  0.7521648049999996  0.3826121666666680   F   F   F
  0.0833333333333357  0.9978351950000004  0.5492788333333323   F   F   F
  0.2500000000000000  0.5021648049999996  0.4507211666666677   F   F   F
  0.5833333333333357  0.4413367200000025  0.3750034700000029   F   F   F
  0.4188037820463535  0.0601676617019393  0.6234060694425523   T   T   T
  0.4166666666666643  0.1913367200000025  0.4583298633333328   F   F   F
  0.5833333333333357  0.3086632799999975  0.5416701366666672   F   F   F
  0.5845625543532478  0.2451544986814653  0.6174308664394133   T   T   T
  0.4166666666666643  0.2521648049999996  0.3826121666666680   F   F   F
  0.4166666666666643  0.4978351950000004  0.5492788333333323   F   F   F
  0.5833333333333357  0.0021648049999996  0.4507211666666677   F   F   F
  0.5833333333333357  0.9413367200000025  0.3750034700000029   F   F   F
  0.4150380978549251  0.5612601215678623  0.6235717383201163   T   T   T
  0.4166666666666643  0.6913367200000025  0.4583298633333328   F   F   F
  0.5833333333333357  0.8086632799999975  0.5416701366666672   F   F   F
  0.5829947727659217  0.7509220141397961  0.6170339163962169   T   T   T
  0.4166666666666643  0.7521648049999996  0.3826121666666680   F   F   F
  0.4166666666666643  0.9978351950000004  0.5492788333333323   F   F   F
  0.5833333333333357  0.5021648049999996  0.4507211666666677   F   F   F
  0.9166666666666643  0.4413367200000025  0.3750034700000029   F   F   F
  0.7491466587848805  0.0554481338326553  0.6237247673874791   T   T   T
  0.7500000000000000  0.1913367200000025  0.4583298633333328   F   F   F
  0.9166666666666643  0.3086632799999975  0.5416701366666672   F   F   F
  0.9085048773275801  0.2613645725533758  0.6191700422379611   T   T   T
  0.7500000000000000  0.2521648049999996  0.3826121666666680   F   F   F
  0.7500000000000000  0.4978351950000004  0.5492788333333323   F   F   F
  0.9166666666666643  0.0021648049999996  0.4507211666666677   F   F   F
  0.9166666666666643  0.9413367200000025  0.3750034700000029   F   F   F
  0.7505865227223154  0.5624493262919756  0.6235724881438856   T   T   T
  0.7500000000000000  0.6913367200000025  0.4583298633333328   F   F   F
  0.9166666666666643  0.8086632799999975  0.5416701366666672   F   F   F
  0.9162805920512582  0.7490417144269017  0.6170792929741893   T   T   T
  0.7500000000000000  0.7521648049999996  0.3826121666666680   F   F   F
  0.7500000000000000  0.9978351950000004  0.5492788333333323   F   F   F
  0.9166666666666643  0.5021648049999996  0.4507211666666677   F   F   F
  0.1353194502024735  0.0123629996606240  0.6900491684401047   T   T   T
  0.0695113449558704  0.0670820182136538  0.6805671921154968   T   T   T
 
  0.00000000E+00  0.00000000E+00  0.00000000E+00
  0.00000000E+00  0.00000000E+00  0.00000000E+00
  0.00000000E+00  0.00000000E+00  0.00000000E+00
  0.00000000E+00  0.00000000E+00  0.00000000E+00
  0.00000000E+00  0.00000000E+00  0.00000000E+00
  0.00000000E+00  0.00000000E+00  0.00000000E+00
  0.00000000E+00  0.00000000E+00  0.00000000E+00
  0.00000000E+00  0.00000000E+00  0.00000000E+00
  0.00000000E+00  0.00000000E+00  0.00000000E+00
  0.00000000E+00  0.00000000E+00  0.00000000E+00
  0.00000000E+00  0.00000000E+00  0.00000000E+00
  0.00000000E+00  0.00000000E+00  0.00000000E+00
  0.00000000E+00  0.00000000E+00  0.00000000E+00
  0.00000000E+00  0.00000000E+00  0.00000000E+00
  0.00000000E+00  0.00000000E+00  0.00000000E+00
  0.00000000E+00  0.00000000E+00  0.00000000E+00
  0.00000000E+00  0.00000000E+00  0.00000000E+00
  0.00000000E+00  0.00000000E+00  0.00000000E+00
  0.00000000E+00  0.00000000E+00  0.00000000E+00
  0.00000000E+00  0.00000000E+00  0.00000000E+00
  0.00000000E+00  0.00000000E+00  0.00000000E+00
  0.00000000E+00  0.00000000E+00  0.00000000E+00
  0.00000000E+00  0.00000000E+00  0.00000000E+00
  0.00000000E+00  0.00000000E+00  0.00000000E+00
  0.00000000E+00  0.00000000E+00  0.00000000E+00
  0.00000000E+00  0.00000000E+00  0.00000000E+00
  0.00000000E+00  0.00000000E+00  0.00000000E+00
  0.00000000E+00  0.00000000E+00  0.00000000E+00
  0.00000000E+00  0.00000000E+00  0.00000000E+00
  0.00000000E+00  0.00000000E+00  0.00000000E+00
  0.00000000E+00  0.00000000E+00  0.00000000E+00
  0.00000000E+00  0.00000000E+00  0.00000000E+00
  0.00000000E+00  0.00000000E+00  0.00000000E+00
  0.00000000E+00  0.00000000E+00  0.00000000E+00
  0.00000000E+00  0.00000000E+00  0.00000000E+00
  0.00000000E+00  0.00000000E+00  0.00000000E+00
  0.00000000E+00  0.00000000E+00  0.00000000E+00
  0.00000000E+00  0.00000000E+00  0.00000000E+00
  0.00000000E+00  0.00000000E+00  0.00000000E+00
  0.00000000E+00  0.00000000E+00  0.00000000E+00
  0.00000000E+00  0.00000000E+00  0.00000000E+00
  0.00000000E+00  0.00000000E+00  0.00000000E+00
  0.00000000E+00  0.00000000E+00  0.00000000E+00
  0.00000000E+00  0.00000000E+00  0.00000000E+00
  0.00000000E+00  0.00000000E+00  0.00000000E+00
  0.00000000E+00  0.00000000E+00  0.00000000E+00
  0.00000000E+00  0.00000000E+00  0.00000000E+00
  0.00000000E+00  0.00000000E+00  0.00000000E+00
  0.00000000E+00  0.00000000E+00  0.00000000E+00
  0.00000000E+00  0.00000000E+00  0.00000000E+00
