As Rh                                   
   1.00000000000000     
     8.1640480578242194    0.0000000000000000    0.0000000000000005
    -4.0820240289121124    7.0702730157927807    0.0000000000000005
     0.0000000000000000    0.0000000000000000   39.9955039544587123
   As   Rh
    12    24
Selective dynamics
Direct
  0.9999206936549996  0.9999374665547904  0.5837507140799971   T   T   T
  0.1666666666666643  0.3333333333333357  0.4166666666666643   F   F   F
  0.3333333333333357  0.1666666666666643  0.5000000000000000   F   F   F
  0.1666666666666643  0.3333333333333357  0.4791666666666643   F   F   F
  0.3334074572779855  0.1666933005996540  0.5617879668272607   T   T   T
  0.5000000000000000  0.5000000000000000  0.3958333333333357   F   F   F
  0.3333333333333357  0.1666666666666643  0.4375000000000000   F   F   F
  0.0000000000000000  0.0000000000000000  0.5208333333333357   F   F   F
  0.1666915376888625  0.3333881742898868  0.6013038501529095   T   T   T
  0.9999662405266037  0.4999455902071830  0.5837610264584967   T   T   T
  0.1666666666666643  0.8333333333333357  0.4166666666666643   F   F   F
  0.3333333333333357  0.6666666666666643  0.5000000000000000   F   F   F
  0.1666666666666643  0.8333333333333357  0.4791666666666643   F   F   F
  0.3334433710659681  0.6666659708775384  0.5617772697052672   T   T   T
  0.5000000000000000  0.0000000000000000  0.3958333333333357   F   F   F
  0.3333333333333357  0.6666666666666643  0.4375000000000000   F   F   F
  0.0000000000000000  0.5000000000000000  0.5208333333333357   F   F   F
  0.1667118450355360  0.8334166991211234  0.6012936470308290   T   T   T
  0.5000260031434323  0.0000210044810203  0.5837647446666665   T   T   T
  0.6666666666666643  0.3333333333333357  0.4166666666666643   F   F   F
  0.8333333333333357  0.1666666666666643  0.5000000000000000   F   F   F
  0.6666666666666643  0.3333333333333357  0.4791666666666643   F   F   F
  0.8333080549000158  0.1666962550164754  0.5617789037168563   T   T   T
  0.0000000000000000  0.5000000000000000  0.3958333333333357   F   F   F
  0.8333333333333357  0.1666666666666643  0.4375000000000000   F   F   F
  0.5000000000000000  0.0000000000000000  0.5208333333333357   F   F   F
  0.6667069441478191  0.3333614553152771  0.6012898283653101   T   T   T
  0.5000127494636146  0.4999997402836840  0.5837756802922556   T   T   T
  0.6666666666666643  0.8333333333333357  0.4166666666666643   F   F   F
  0.8333333333333357  0.6666666666666643  0.5000000000000000   F   F   F
  0.6666666666666643  0.8333333333333357  0.4791666666666643   F   F   F
  0.8331784524727084  0.6664861768740096  0.5617731771099059   T   T   T
  0.0000000000000000  0.0000000000000000  0.3958333333333357   F   F   F
  0.8333333333333357  0.6666666666666643  0.4375000000000000   F   F   F
  0.5000000000000000  0.5000000000000000  0.5208333333333357   F   F   F
  0.6666275591345610  0.8332919638790273  0.6012784009752323   T   T   T
 
  0.00000000E+00  0.00000000E+00  0.00000000E+00
  0.00000000E+00  0.00000000E+00  0.00000000E+00
  0.00000000E+00  0.00000000E+00  0.00000000E+00
  0.00000000E+00  0.00000000E+00  0.00000000E+00
  0.00000000E+00  0.00000000E+00  0.00000000E+00
  0.00000000E+00  0.00000000E+00  0.00000000E+00
  0.00000000E+00  0.00000000E+00  0.00000000E+00
  0.00000000E+00  0.00000000E+00  0.00000000E+00
  0.00000000E+00  0.00000000E+00  0.00000000E+00
  0.00000000E+00  0.00000000E+00  0.00000000E+00
  0.00000000E+00  0.00000000E+00  0.00000000E+00
  0.00000000E+00  0.00000000E+00  0.00000000E+00
  0.00000000E+00  0.00000000E+00  0.00000000E+00
  0.00000000E+00  0.00000000E+00  0.00000000E+00
  0.00000000E+00  0.00000000E+00  0.00000000E+00
  0.00000000E+00  0.00000000E+00  0.00000000E+00
  0.00000000E+00  0.00000000E+00  0.00000000E+00
  0.00000000E+00  0.00000000E+00  0.00000000E+00
  0.00000000E+00  0.00000000E+00  0.00000000E+00
  0.00000000E+00  0.00000000E+00  0.00000000E+00
  0.00000000E+00  0.00000000E+00  0.00000000E+00
  0.00000000E+00  0.00000000E+00  0.00000000E+00
  0.00000000E+00  0.00000000E+00  0.00000000E+00
  0.00000000E+00  0.00000000E+00  0.00000000E+00
  0.00000000E+00  0.00000000E+00  0.00000000E+00
  0.00000000E+00  0.00000000E+00  0.00000000E+00
  0.00000000E+00  0.00000000E+00  0.00000000E+00
  0.00000000E+00  0.00000000E+00  0.00000000E+00
  0.00000000E+00  0.00000000E+00  0.00000000E+00
  0.00000000E+00  0.00000000E+00  0.00000000E+00
  0.00000000E+00  0.00000000E+00  0.00000000E+00
  0.00000000E+00  0.00000000E+00  0.00000000E+00
  0.00000000E+00  0.00000000E+00  0.00000000E+00
  0.00000000E+00  0.00000000E+00  0.00000000E+00
  0.00000000E+00  0.00000000E+00  0.00000000E+00
  0.00000000E+00  0.00000000E+00  0.00000000E+00
