As Rh
 1.0000000000000000
     8.1640480578242194    0.0000000000000000    0.0000000000000005
    -4.0820240289121124    7.0702730157927807    0.0000000000000005
     0.0000000000000000    0.0000000000000000   39.9955039544587123
As Rh
12 24
Selective dynamics
Cartesian
 -0.0003921977859118 -0.0004421285302669 23.3474039934046225   T   T   T
  0.0000000000000009  2.3567576719309287 16.6647933143577944   F   F   F
  2.0410120144560571  1.1783788359654639 19.9977519772293526   F   F   F
  0.0000000000000000  2.3567576719309233 19.1645123115114657   F   F   F
  2.0415084455480157  1.1785671451431625 22.4689928488070976   T   T   T
  2.0410120144560531  3.5351365078963894 15.8315536486399040   F   F   F
  2.0410120144560562  1.1783788359654639 17.4980329800756849   F   F   F
  0.0000000000000009  0.0000000000000000 20.8309916429472430   F   F   F
 -0.0000208138819753  2.3571454124662301 24.0494505166218104   T   T   T
 -2.0410655263376150  3.5347518158064526 23.3478164421796457   T   T   T
 -2.0410120144560553  5.8918941798273190 16.6647933143577944   F   F   F
  0.0000000000000009  4.7135153438618538 19.9977519772293526   F   F   F
 -2.0410120144560562  5.8918941798273137 19.1645123115114657   F   F   F
  0.0009011935653680  4.7135104244427533 22.4685650120220046   T   T   T
 -0.0000000000000031  7.0702730157927798 15.8315536486399040   F   F   F
  0.0000000000000000  4.7135153438618538 17.4980329800756849   F   F   F
 -2.0410120144560553  3.5351365078963903 20.8309916429472430   F   F   F
 -2.0409834772303403  5.8924835987071447 24.0490424376123073   T   T   T
  4.0821505790285313  0.0001485074153607 23.3479651537892998   T   T   T
  4.0820240289121106  2.3567576719309287 16.6647933143577944   F   F   F
  6.1230360433681668  1.1783788359654639 19.9977519772293526   F   F   F
  4.0820240289121097  2.3567576719309233 19.1645123115114657   F   F   F
  6.1227088886688303  1.1785880336766894 22.4686303651389565   T   T   T
  6.1230360433681632  3.5351365078963894 15.8315536486399040   F   F   F
  6.1230360433681659  1.1783788359654639 17.4980329800756849   F   F   F
  4.0820240289121106  0.0000000000000000 20.8309916429472430   F   F   F
  4.0822380615978417  2.3569565020210126 24.0488897081606510   T   T   T
  2.0411171618579376  3.5351346716311349 23.3484025296458633   T   T   T
  2.0410120144560544  5.8918941798273190 16.6647933143577944   F   F   F
  4.0820240289121106  4.7135153438618538 19.9977519772293526   F   F   F
  2.0410120144560535  5.8918941798273137 19.1645123115114657   F   F   F
  4.0814963377933040  4.7122392317512061 22.4684013266079958   T   T   T
  4.0820240289121070  7.0702730157927798 15.8315536486399040   F   F   F
  4.0820240289121097  4.7135153438618538 17.4980329800756849   F   F   F
  2.0410120144560544  3.5351365078963903 20.8309916429472430   F   F   F
  2.0408616097910883  5.8916016864908443 24.0484326639354649   T   T   T
