Zn Au
 1.0000000000000000
    11.4928697623033003   -0.0000000000000000   -0.0000000000000007
     0.0000000000000007   11.4928697623033003   -0.0000000000000007
    -0.0000000000000000    0.0000000000000084   68.2908108707267445
Zn Au
64 192
Selective dynamics
Cartesian
  0.5308953621858189  2.3423220783900094 22.6839648717534494   F   F   F
  3.4041128027616439  5.2155395189658327 18.0477324526047163   F   F   F
  0.5308953621858189  2.3423220783900089 18.0477324526047163   F   F   F
  0.5308953621858189  5.2155395189658371 43.6567865291272383   F   F   F
  3.4041128027616439  5.2155395189658345 22.6839648717534494   F   F   F
  3.4041443459680760  2.3422997744303449 48.3417877163630010   T   T   T
  3.4041128027616434  2.3423220783900121 43.6567865291272383   F   F   F
  0.5307773754945254  5.2157680417187153 48.3411832873135836   T   T   T
  3.4041128027616439  5.2155395189658362 39.7566675894351462   F   F   F
  0.5308953621858189  2.3423220783900112 35.1204351702863988   F   F   F
  3.4041128027616439  5.2155395189658353 35.1204351702863988   F   F   F
  3.4041128027616434  2.3423220783900098 26.5840838114455558   F   F   F
  0.5308953621858189  2.3423220783900116 39.7566675894351462   F   F   F
  0.5308953621858189  5.2155395189658345 31.2203162305942961   F   F   F
  0.5308953621858189  5.2155395189658353 26.5840838114455558   F   F   F
  3.4041128027616434  2.3423220783900107 31.2203162305942961   F   F   F
  5.2155395189658318  1.2805313540183723 20.3658486621790722   F   F   F
  3.4041128027616434  2.3423220783900089 18.3286513127511661   F   F   F
  1.9676885516079139  3.7839929920934465 50.2162125220516486   T   T   T
  2.3423220783900067  0.5308953621858205 20.3658486621790722   F   F   F
  2.3423220783900072  3.4041128027616492 45.9749027387016156   F   F   F
  3.4041128027616439  5.2155395189658380 48.0121000881295217   F   F   F
  4.8404591609273995  0.9008265252840728 50.2160900950426026   T   T   T
  3.4041128027616434  2.3423220783900094 22.4030460116069854   F   F   F
  5.2155395189658318  4.1537487945941995 45.9749027387016156   F   F   F
  3.4041128027616439  5.2155395189658371 43.9377053892737024   F   F   F
  4.4659035271332801  1.2805313540183754 45.9749027387016156   F   F   F
  0.5308953621858189  2.3423220783900129 48.0121000881295217   F   F   F
  1.9734321908936505  0.9057133581020991 41.7067270592811994   F   F   F
  0.5308953621858189  5.2155395189658345 22.4030460116069854   F   F   F
  0.5308953621858189  2.3423220783900121 43.9377053892737024   F   F   F
  1.5926860865574559  3.4041128027616461 20.3658486621790722   F   F   F
  4.8466496314694751  0.9057133581020991 41.7067270592811994   F   F   F
  1.9615759740538123  3.7789307986779241 41.7067270592811994   F   F   F
  4.4659035271332810  4.1537487945941969 20.3658486621790722   F   F   F
  1.9671195417328069  0.9107499287817744 50.2158736072474881   T   T   T
  0.5308953621858189  5.2155395189658336 18.3286513127511661   F   F   F
  4.8347934146296376  3.7789307986779241 41.7067270592811994   F   F   F
  1.5926860865574552  0.5308953621858236 45.9749027387016156   F   F   F
  4.8410070375526049  3.7740199796760918 50.2158646218472882   T   T   T
  2.3423220783900076  4.1537487945941987 37.4385513798607690   F   F   F
  0.5308953621858189  5.2155395189658353 35.4013540304328629   F   F   F
  4.8407215230495568  0.9116414665220172 33.1703757004403457   F   F   F
  5.2155395189658318  3.4041128027616478 37.4385513798607690   F   F   F
  5.2155395189658318  0.5308953621858222 28.9022000210199330   F   F   F
  0.5308953621858189  2.3423220783900107 30.9393973704478462   F   F   F
  1.9675040824737309  3.7730026902580032 33.1703757004403457   F   F   F
  0.5308953621858189  5.2155395189658362 39.4757487292886822   F   F   F
  2.3423220783900067  1.2805313540183723 28.9022000210199330   F   F   F
  0.5308953621858189  2.3423220783900098 26.8650026715920269   F   F   F
  1.5926860865574559  4.1537487945941978 28.9022000210199330   F   F   F
  3.4041128027616439  5.2155395189658345 30.9393973704478462   F   F   F
  4.8466496314694760  3.7789307986779219 24.6340243415995026   F   F   F
  3.4041128027616434  2.3423220783900116 39.4757487292886822   F   F   F
  3.4041128027616439  5.2155395189658353 26.8650026715920269   F   F   F
  4.4659035271332810  0.5308953621858236 37.4385513798607690   F   F   F
  1.9734321908936507  3.7789307986779219 24.6340243415995026   F   F   F
  4.8347934146296376  0.9057133581020967 24.6340243415995026   F   F   F
  1.5926860865574552  1.2805313540183736 37.4385513798607690   F   F   F
  4.8407215230495568  3.7848589070978416 33.1703757004403457   F   F   F
  3.4041128027616434  2.3423220783900112 35.4013540304328629   F   F   F
  1.9615759740538123  0.9057133581020967 24.6340243415995026   F   F   F
  4.4659035271332819  3.4041128027616470 28.9022000210199330   F   F   F
  1.9675040824737313  0.8997852496821790 33.1703757004403457   F   F   F
  0.5308953621858192  8.0887569595416586 22.6839648717534494   F   F   F
  3.4041128027616443 10.9619744001174837 18.0477324526047163   F   F   F
  0.5308953621858192  8.0887569595416586 18.0477324526047163   F   F   F
  0.5308953621858192 10.9619744001174872 43.6567865291272383   F   F   F
  3.4041128027616443 10.9619744001174837 22.6839648717534494   F   F   F
  3.4041475948534541  8.0887796790760618 48.3409519053421946   T   T   T
  3.4041128027616439  8.0887569595416622 43.6567865291272383   F   F   F
  0.5307774111476276 10.9621334282028506 48.3409903372995586   T   T   T
  3.4041128027616443 10.9619744001174872 39.7566675894351462   F   F   F
  0.5308953621858192  8.0887569595416622 35.1204351702863988   F   F   F
  3.4041128027616443 10.9619744001174855 35.1204351702863988   F   F   F
  3.4041128027616439  8.0887569595416604 26.5840838114455558   F   F   F
  0.5308953621858192  8.0887569595416622 39.7566675894351462   F   F   F
  0.5308953621858192 10.9619744001174837 31.2203162305942961   F   F   F
  0.5308953621858192 10.9619744001174855 26.5840838114455558   F   F   F
  3.4041128027616439  8.0887569595416604 31.2203162305942961   F   F   F
  5.2155395189658318  7.0269662351700219 20.3658486621790722   F   F   F
  3.4041128027616439  8.0887569595416586 18.3286513127511661   F   F   F
  1.9676126505042864  9.5302876392538369 50.2158834892784967   T   T   T
  2.3423220783900072  6.2773302433374703 20.3658486621790722   F   F   F
  2.3423220783900076  9.1505476839132989 45.9749027387016156   F   F   F
  3.4041128027616443 10.9619744001174872 48.0121000881295217   F   F   F
  4.8405080053912899  6.6472209542941751 50.2159079406870319   T   T   T
  3.4041128027616439  8.0887569595416586 22.4030460116069854   F   F   F
  5.2155395189658318  9.9001836757458506 45.9749027387016156   F   F   F
  3.4041128027616443 10.9619744001174872 43.9377053892737024   F   F   F
  4.4659035271332801  7.0269662351700255 45.9749027387016156   F   F   F
  0.5308953621858192  8.0887569595416622 48.0121000881295217   F   F   F
  1.9734321908936510  6.6521482392537497 41.7067270592811994   F   F   F
  0.5308953621858192 10.9619744001174837 22.4030460116069854   F   F   F
  0.5308953621858192  8.0887569595416622 43.9377053892737024   F   F   F
  1.5926860865574564  9.1505476839132953 20.3658486621790722   F   F   F
  4.8466496314694751  6.6521482392537497 41.7067270592811994   F   F   F
  1.9615759740538128  9.5253656798295747 41.7067270592811994   F   F   F
  4.4659035271332810  9.9001836757458470 20.3658486621790722   F   F   F
  1.9671265523689891  6.6570980216343383 50.2161005005933134   T   T   T
  0.5308953621858192 10.9619744001174837 18.3286513127511661   F   F   F
  4.8347934146296376  9.5253656798295747 41.7067270592811994   F   F   F
  1.5926860865574557  6.2773302433374738 45.9749027387016156   F   F   F
  4.8410861971010819  9.5203619496211491 50.2159991681569977   T   T   T
  2.3423220783900081  9.9001836757458488 37.4385513798607690   F   F   F
  0.5308953621858192 10.9619744001174855 35.4013540304328629   F   F   F
  4.8407215230495568  6.6580763476736671 33.1703757004403457   F   F   F
  5.2155395189658318  9.1505476839132989 37.4385513798607690   F   F   F
  5.2155395189658318  6.2773302433374720 28.9022000210199330   F   F   F
  0.5308953621858192  8.0887569595416604 30.9393973704478462   F   F   F
  1.9675040824737313  9.5194375714096537 33.1703757004403457   F   F   F
  0.5308953621858192 10.9619744001174872 39.4757487292886822   F   F   F
  2.3423220783900072  7.0269662351700219 28.9022000210199330   F   F   F
  0.5308953621858192  8.0887569595416604 26.8650026715920269   F   F   F
  1.5926860865574564  9.9001836757458470 28.9022000210199330   F   F   F
  3.4041128027616443 10.9619744001174837 30.9393973704478462   F   F   F
  4.8466496314694760  9.5253656798295729 24.6340243415995026   F   F   F
  3.4041128027616439  8.0887569595416622 39.4757487292886822   F   F   F
  3.4041128027616443 10.9619744001174855 26.8650026715920269   F   F   F
  4.4659035271332810  6.2773302433374738 37.4385513798607690   F   F   F
  1.9734321908936512  9.5253656798295729 24.6340243415995026   F   F   F
  4.8347934146296376  6.6521482392537470 24.6340243415995026   F   F   F
  1.5926860865574557  7.0269662351700237 37.4385513798607690   F   F   F
  4.8407215230495568  9.5312937882494921 33.1703757004403457   F   F   F
  3.4041128027616439  8.0887569595416622 35.4013540304328629   F   F   F
  1.9615759740538128  6.6521482392537470 24.6340243415995026   F   F   F
  4.4659035271332819  9.1505476839132971 28.9022000210199330   F   F   F
  1.9675040824737318  6.6462201308338287 33.1703757004403457   F   F   F
  6.2773302433374694  2.3423220783900094 22.6839648717534494   F   F   F
  9.1505476839132935  5.2155395189658327 18.0477324526047163   F   F   F
  6.2773302433374694  2.3423220783900089 18.0477324526047163   F   F   F
  6.2773302433374694  5.2155395189658371 43.6567865291272383   F   F   F
  9.1505476839132935  5.2155395189658345 22.6839648717534494   F   F   F
  9.1505391313321294  2.3422725465534460 48.3408552277725221   T   T   T
  9.1505476839132935  2.3423220783900121 43.6567865291272383   F   F   F
  6.2772632324117650  5.2155523586633281 48.3410402336049856   T   T   T
  9.1505476839132935  5.2155395189658362 39.7566675894351462   F   F   F
  6.2773302433374694  2.3423220783900112 35.1204351702863988   F   F   F
  9.1505476839132935  5.2155395189658353 35.1204351702863988   F   F   F
  9.1505476839132935  2.3423220783900098 26.5840838114455558   F   F   F
  6.2773302433374694  2.3423220783900116 39.7566675894351462   F   F   F
  6.2773302433374694  5.2155395189658345 31.2203162305942961   F   F   F
  6.2773302433374694  5.2155395189658353 26.5840838114455558   F   F   F
  9.1505476839132935  2.3423220783900107 31.2203162305942961   F   F   F
 10.9619744001174819  1.2805313540183723 20.3658486621790722   F   F   F
  9.1505476839132935  2.3423220783900089 18.3286513127511661   F   F   F
  7.7143456527487189  3.7839999366821231 50.2159455812530382   T   T   T
  8.0887569595416569  0.5308953621858205 20.3658486621790722   F   F   F
  8.0887569595416569  3.4041128027616492 45.9749027387016156   F   F   F
  9.1505476839132935  5.2155395189658380 48.0121000881295217   F   F   F
 10.5868581434991675  0.9007341992318187 50.2161081729450984   T   T   T
  9.1505476839132935  2.3423220783900094 22.4030460116069854   F   F   F
 10.9619744001174819  4.1537487945941995 45.9749027387016156   F   F   F
  9.1505476839132935  5.2155395189658371 43.9377053892737024   F   F   F
 10.2123384082849302  1.2805313540183754 45.9749027387016156   F   F   F
  6.2773302433374694  2.3423220783900129 48.0121000881295217   F   F   F
  7.7198670720453002  0.9057133581020991 41.7067270592811994   F   F   F
  6.2773302433374694  5.2155395189658345 22.4030460116069854   F   F   F
  6.2773302433374694  2.3423220783900121 43.9377053892737024   F   F   F
  7.3391209677091060  3.4041128027616461 20.3658486621790722   F   F   F
 10.5930845126211253  0.9057133581020991 41.7067270592811994   F   F   F
  7.7080108552054627  3.7789307986779241 41.7067270592811994   F   F   F
 10.2123384082849320  4.1537487945941969 20.3658486621790722   F   F   F
  7.7137589605176373  0.9106782364430954 50.2159257288317917   T   T   T
  6.2773302433374694  5.2155395189658336 18.3286513127511661   F   F   F
 10.5812282957812869  3.7789307986779241 41.7067270592811994   F   F   F
  7.3391209677091052  0.5308953621858236 45.9749027387016156   F   F   F
 10.5873273165856254  3.7740307602733139 50.2161154640367045   T   T   T
  8.0887569595416586  4.1537487945941987 37.4385513798607690   F   F   F
  6.2773302433374694  5.2155395189658353 35.4013540304328629   F   F   F
 10.5871564042012061  0.9116414665220172 33.1703757004403457   F   F   F
 10.9619744001174819  3.4041128027616478 37.4385513798607690   F   F   F
 10.9619744001174819  0.5308953621858222 28.9022000210199330   F   F   F
  6.2773302433374694  2.3423220783900107 30.9393973704478462   F   F   F
  7.7139389636253810  3.7730026902580032 33.1703757004403457   F   F   F
  6.2773302433374694  5.2155395189658362 39.4757487292886822   F   F   F
  8.0887569595416569  1.2805313540183723 28.9022000210199330   F   F   F
  6.2773302433374694  2.3423220783900098 26.8650026715920269   F   F   F
  7.3391209677091060  4.1537487945941978 28.9022000210199330   F   F   F
  9.1505476839132935  5.2155395189658345 30.9393973704478462   F   F   F
 10.5930845126211253  3.7789307986779219 24.6340243415995026   F   F   F
  9.1505476839132935  2.3423220783900116 39.4757487292886822   F   F   F
  9.1505476839132935  5.2155395189658353 26.8650026715920269   F   F   F
 10.2123384082849320  0.5308953621858236 37.4385513798607690   F   F   F
  7.7198670720453011  3.7789307986779219 24.6340243415995026   F   F   F
 10.5812282957812869  0.9057133581020967 24.6340243415995026   F   F   F
  7.3391209677091052  1.2805313540183736 37.4385513798607690   F   F   F
 10.5871564042012061  3.7848589070978416 33.1703757004403457   F   F   F
  9.1505476839132935  2.3423220783900112 35.4013540304328629   F   F   F
  7.7080108552054627  0.9057133581020967 24.6340243415995026   F   F   F
 10.2123384082849320  3.4041128027616470 28.9022000210199330   F   F   F
  7.7139389636253810  0.8997852496821790 33.1703757004403457   F   F   F
  6.2773302433374694  8.0887569595416586 22.6839648717534494   F   F   F
  9.1505476839132935 10.9619744001174837 18.0477324526047163   F   F   F
  6.2773302433374694  8.0887569595416586 18.0477324526047163   F   F   F
  6.2773302433374694 10.9619744001174872 43.6567865291272383   F   F   F
  9.1505476839132935 10.9619744001174837 22.6839648717534494   F   F   F
  9.1505325031315916  8.0887758126320719 48.3399374282345207   T   T   T
  9.1505476839132935  8.0887569595416622 43.6567865291272383   F   F   F
  6.2773112428893638 10.9619054611212228 48.3407916836332561   T   T   T
  9.1505476839132935 10.9619744001174872 39.7566675894351462   F   F   F
  6.2773302433374694  8.0887569595416622 35.1204351702863988   F   F   F
  9.1505476839132935 10.9619744001174855 35.1204351702863988   F   F   F
  9.1505476839132935  8.0887569595416604 26.5840838114455558   F   F   F
  6.2773302433374694  8.0887569595416622 39.7566675894351462   F   F   F
  6.2773302433374694 10.9619744001174837 31.2203162305942961   F   F   F
  6.2773302433374694 10.9619744001174855 26.5840838114455558   F   F   F
  9.1505476839132935  8.0887569595416604 31.2203162305942961   F   F   F
 10.9619744001174819  7.0269662351700219 20.3658486621790722   F   F   F
  9.1505476839132935  8.0887569595416586 18.3286513127511661   F   F   F
  7.7142757907135575  9.5303097637238157 50.2156106103671505   T   T   T
  8.0887569595416569  6.2773302433374703 20.3658486621790722   F   F   F
  8.0887569595416569  9.1505476839132989 45.9749027387016156   F   F   F
  9.1505476839132935 10.9619744001174872 48.0121000881295217   F   F   F
 10.5869007870409142  6.6471280361026626 50.2159257012413605   T   T   T
  9.1505476839132935  8.0887569595416586 22.4030460116069854   F   F   F
 10.9619744001174819  9.9001836757458506 45.9749027387016156   F   F   F
  9.1505476839132935 10.9619744001174872 43.9377053892737024   F   F   F
 10.2123384082849302  7.0269662351700255 45.9749027387016156   F   F   F
  6.2773302433374694  8.0887569595416622 48.0121000881295217   F   F   F
  7.7198670720453002  6.6521482392537497 41.7067270592811994   F   F   F
  6.2773302433374694 10.9619744001174837 22.4030460116069854   F   F   F
  6.2773302433374694  8.0887569595416622 43.9377053892737024   F   F   F
  7.3391209677091060  9.1505476839132953 20.3658486621790722   F   F   F
 10.5930845126211253  6.6521482392537497 41.7067270592811994   F   F   F
  7.7080108552054627  9.5253656798295747 41.7067270592811994   F   F   F
 10.2123384082849320  9.9001836757458470 20.3658486621790722   F   F   F
  7.7137082271678565  6.6570924996481704 50.2160579959623306   T   T   T
  6.2773302433374694 10.9619744001174837 18.3286513127511661   F   F   F
 10.5812282957812869  9.5253656798295747 41.7067270592811994   F   F   F
  7.3391209677091052  6.2773302433374738 45.9749027387016156   F   F   F
 10.5873935758703475  9.5203943941275089 50.2161683893523900   T   T   T
  8.0887569595416586  9.9001836757458488 37.4385513798607690   F   F   F
  6.2773302433374694 10.9619744001174855 35.4013540304328629   F   F   F
 10.5871564042012061  6.6580763476736671 33.1703757004403457   F   F   F
 10.9619744001174819  9.1505476839132989 37.4385513798607690   F   F   F
 10.9619744001174819  6.2773302433374720 28.9022000210199330   F   F   F
  6.2773302433374694  8.0887569595416604 30.9393973704478462   F   F   F
  7.7139389636253810  9.5194375714096537 33.1703757004403457   F   F   F
  6.2773302433374694 10.9619744001174872 39.4757487292886822   F   F   F
  8.0887569595416569  7.0269662351700219 28.9022000210199330   F   F   F
  6.2773302433374694  8.0887569595416604 26.8650026715920269   F   F   F
  7.3391209677091060  9.9001836757458470 28.9022000210199330   F   F   F
  9.1505476839132935 10.9619744001174837 30.9393973704478462   F   F   F
 10.5930845126211253  9.5253656798295729 24.6340243415995026   F   F   F
  9.1505476839132935  8.0887569595416622 39.4757487292886822   F   F   F
  9.1505476839132935 10.9619744001174855 26.8650026715920269   F   F   F
 10.2123384082849320  6.2773302433374738 37.4385513798607690   F   F   F
  7.7198670720453011  9.5253656798295729 24.6340243415995026   F   F   F
 10.5812282957812869  6.6521482392537470 24.6340243415995026   F   F   F
  7.3391209677091052  7.0269662351700237 37.4385513798607690   F   F   F
 10.5871564042012061  9.5312937882494921 33.1703757004403457   F   F   F
  9.1505476839132935  8.0887569595416622 35.4013540304328629   F   F   F
  7.7080108552054627  6.6521482392537470 24.6340243415995026   F   F   F
 10.2123384082849320  9.1505476839132971 28.9022000210199330   F   F   F
  7.7139389636253810  6.6462201308338287 33.1703757004403457   F   F   F
