Ge Se
 1.0000000000000000
    11.7750813299999990    0.0000000000000000    0.0000000000000007
    -0.0000000000000006    9.2101966599999994    0.0000000000000006
     0.0000000000000000    0.0000000000000000   33.8324215200000040
Ge Se
24 24
Selective dynamics
Cartesian
  2.9437703324999993  4.0647979844793554 12.6872754685026763   F   F   F
  0.9815278265043682  0.5428606027338349 21.0958505412300710   T   T   T
  0.9812567774999998  1.7622488194793553 15.5064091314973282   F   F   F
  2.9437703324999998  2.8428495105206446 18.3260123885026793   F   F   F
  2.9438703415956038  2.2782564157413181 20.8824535472532418   T   T   T
  0.9812567774999998  2.3224874447805517 12.9446961013471622   F   F   F
  0.9812567774999996  4.5851600502194483 18.5834330213471652   F   F   F
  2.9437703324999998  0.0199382797805512 15.2489884986528441   F   F   F
  2.9437703324999989  8.6698963144793559 12.6872754685026763   F   F   F
  0.9815280236928237  5.1479501608393345 21.0961242855292639   T   T   T
  0.9812567774999995  6.3673471494793548 15.5064091314973282   F   F   F
  2.9437703324999993  7.4479478405206443 18.3260123885026793   F   F   F
  2.9438976198731743  6.8830826364516646 20.8827782580202594   T   T   T
  0.9812567774999995  6.9275857747805514 12.9446961013471622   F   F   F
  0.9812567774999993  9.1902583802194471 18.5834330213471652   F   F   F
  2.9437703324999993  4.6250366097805511 15.2489884986528441   F   F   F
  6.8687974424999991  4.0647979844793554 12.6872754685026763   F   F   F
  4.9064530182656130  0.5425506113163822 21.0957823846866503   T   T   T
  4.9062838874999999  1.7622488194793553 15.5064091314973282   F   F   F
  6.8687974425000000  2.8428495105206446 18.3260123885026793   F   F   F
  6.8682162312350563  2.2779687127357211 20.8821862814230528   T   T   T
  4.9062838874999999  2.3224874447805517 12.9446961013471622   F   F   F
  4.9062838874999990  4.5851600502194483 18.5834330213471652   F   F   F
  6.8687974425000000  0.0199382797805512 15.2489884986528441   F   F   F
  6.8687974424999982  8.6698963144793559 12.6872754685026763   F   F   F
  4.9064267601827147  5.1476729072730247 21.0960266001667023   T   T   T
  4.9062838874999990  6.3673471494793548 15.5064091314973282   F   F   F
  6.8687974424999991  7.4479478405206443 18.3260123885026793   F   F   F
  6.8682423162525081  6.8827701029892445 20.8824389935044721   T   T   T
  4.9062838874999990  6.9275857747805514 12.9446961013471622   F   F   F
  4.9062838874999990  9.1902583802194471 18.5834330213471652   F   F   F
  6.8687974424999991  4.6250366097805511 15.2489884986528441   F   F   F
 10.7938245524999985  4.0647979844793554 12.6872754685026763   F   F   F
  8.8313882514742676  0.5423566873717748 21.0960098547103243   T   T   T
  8.8313109974999993  1.7622488194793553 15.5064091314973282   F   F   F
 10.7938245524999985  2.8428495105206446 18.3260123885026793   F   F   F
 10.7937025824874837  2.2777881150858339 20.8822027457218766   T   T   T
  8.8313109974999993  2.3224874447805517 12.9446961013471622   F   F   F
  8.8313109974999993  4.5851600502194483 18.5834330213471652   F   F   F
 10.7938245524999985  0.0199382797805512 15.2489884986528441   F   F   F
 10.7938245524999985  8.6698963144793559 12.6872754685026763   F   F   F
  8.8313873125055711  5.1474825573952128 21.0962400314484384   T   T   T
  8.8313109974999993  6.3673471494793548 15.5064091314973282   F   F   F
 10.7938245524999985  7.4479478405206443 18.3260123885026793   F   F   F
 10.7936882216434498  6.8825683239207969 20.8824546109691411   T   T   T
  8.8313109974999993  6.9275857747805514 12.9446961013471622   F   F   F
  8.8313109974999993  9.1902583802194471 18.5834330213471652   F   F   F
 10.7938245524999985  4.6250366097805511 15.2489884986528441   F   F   F
