Bi Te Pb
 1.0000000000000000
     9.3555735572755179    0.0000000000000000    0.0000000000000006
    -4.6777867786377580    8.1021643675745487    0.0000000000000006
     0.0000000000000000    0.0000000000000000   51.9786549458288150
Bi Te Pb
12 20 4
Selective dynamics
Cartesian
  0.0000000000000004  2.7007214558581829 24.0717096273605300   F   F   F
  0.0000000000000000  0.0000000000000000 20.1573372924963259   F   F   F
  2.3388933893188795  1.3503607279290917 27.9158040485430377   F   F   F
  0.0000000000000000  0.0000000000000000 25.9336460358085859   F   F   F
  2.3388933893188795  1.3503607279290917 22.3359746209260095   F   F   F
  2.3374401121914405  1.3502872761397582 33.6436173598026187   T   T   T
  0.0000000000000004  2.7007214558581829 29.5400916209082034   F   F   F
  0.0000000000000004  2.7007214558581829 18.5905848932906999   F   F   F
 -0.0022501221856146 -0.0025798538099480 32.1407286349943604   T   T   T
 -2.3388933893188786  6.7518036396454573 24.0717096273605300   F   F   F
 -2.3388933893188790  4.0510821837872744 20.1573372924963259   F   F   F
  0.0000000000000004  5.4014429117163658 27.9158040485430377   F   F   F
 -2.3388933893188790  4.0510821837872744 25.9336460358085859   F   F   F
  0.0000000000000004  5.4014429117163658 22.3359746209260095   F   F   F
 -0.0003830648545313  5.4004471000879661 33.6474712663307116   T   T   T
 -2.3388933893188786  6.7518036396454573 29.5400916209082034   F   F   F
 -2.3388933893188786  6.7518036396454573 18.5905848932906999   F   F   F
 -2.3412394469983395  4.0510510170632745 32.1407583756166275   T   T   T
  4.6777867786377598  2.7007214558581829 24.0717096273605300   F   F   F
  4.6777867786377589  0.0000000000000000 20.1573372924963259   F   F   F
  7.0166801679566380  1.3503607279290917 27.9158040485430377   F   F   F
  4.6777867786377589  0.0000000000000000 25.9336460358085859   F   F   F
  7.0166801679566380  1.3503607279290917 22.3359746209260095   F   F   F
  7.0171591306776282  1.3517983215930143 33.6525657684519217   T   T   T
  4.6777867786377598  2.7007214558581829 29.5400916209082034   F   F   F
  4.6777867786377598  2.7007214558581829 18.5905848932906999   F   F   F
  4.6795600275555023 -0.0000272603681495 32.1414639542138900   T   T   T
  2.3388933893188804  6.7518036396454573 24.0717096273605300   F   F   F
  2.3388933893188799  4.0510821837872744 20.1573372924963259   F   F   F
  4.6777867786377598  5.4014429117163658 27.9158040485430377   F   F   F
  2.3388933893188799  4.0510821837872744 25.9336460358085859   F   F   F
  4.6777867786377598  5.4014429117163658 22.3359746209260095   F   F   F
  4.6796051079750711  5.4013775567366649 33.6581803593994380   T   T   T
  2.3388933893188804  6.7518036396454573 29.5400916209082034   F   F   F
  2.3388933893188804  6.7518036396454573 18.5905848932906999   F   F   F
  2.3409614355946609  4.0534239933679590 32.1409245155312817   T   T   T
