Sb Pd H O                               
   1.00000000000000     
    11.5973221502275230    0.0000000000000000    0.0000000000000007
    -5.7986610751137606   10.0435755979690047    0.0000000000000007
     0.0000000000000000    0.0000000000000000   32.8768782300000026
   Sb   Pd   H    O 
    16    48     1     1
Selective dynamics
Direct
  0.3333333333333357  0.1666666666666643  0.4642857142857153   F   F   F
  0.1666666666666643  0.3333333333333357  0.3928571428571459   F   F   F
  0.4164604575000013  0.3329209150000025  0.3928571428571459   F   F   F
  0.1670790849999975  0.0835395424999987  0.3928571428571459   F   F   F
  0.4164604575000013  0.0835395424999987  0.3928571428571459   F   F   F
  0.0835395424999987  0.1670790849999975  0.4642857142857153   F   F   F
  0.3329209150000025  0.4164604575000013  0.4642857142857153   F   F   F
  0.0835395424999987  0.4164604575000013  0.4642857142857153   F   F   F
  0.3365706386882152  0.1721271077866930  0.6218086084315075   T   T   T
  0.1666666666666643  0.3333333333333357  0.5357142857142847   F   F   F
  0.4164604575000013  0.3329209150000025  0.5357142857142847   F   F   F
  0.1670790849999975  0.0835395424999987  0.5357142857142847   F   F   F
  0.4164604575000013  0.0835395424999987  0.5357142857142847   F   F   F
  0.0893210555289059  0.1706234483479605  0.6050432897705846   T   T   T
  0.3356956236344857  0.4154537417864717  0.6056820813218948   T   T   T
  0.0864109728074780  0.4179806995881563  0.6056470874455826   T   T   T
  0.3333333333333357  0.6666666666666643  0.4642857142857153   F   F   F
  0.1666666666666643  0.8333333333333357  0.3928571428571459   F   F   F
  0.4164604575000013  0.8329209150000025  0.3928571428571459   F   F   F
  0.1670790849999975  0.5835395424999987  0.3928571428571459   F   F   F
  0.4164604575000013  0.5835395424999987  0.3928571428571459   F   F   F
  0.0835395424999987  0.6670790849999975  0.4642857142857153   F   F   F
  0.3329209150000025  0.9164604575000013  0.4642857142857153   F   F   F
  0.0835395424999987  0.9164604575000013  0.4642857142857153   F   F   F
  0.3353694996202137  0.6702883548013645  0.6065093379234980   T   T   T
  0.1666666666666643  0.8333333333333357  0.5357142857142847   F   F   F
  0.4164604575000013  0.8329209150000025  0.5357142857142847   F   F   F
  0.1670790849999975  0.5835395424999987  0.5357142857142847   F   F   F
  0.4164604575000013  0.5835395424999987  0.5357142857142847   F   F   F
  0.0862526338437277  0.6724731495380141  0.6058166568731735   T   T   T
  0.3348549174069007  0.9228851050180467  0.6059156318618690   T   T   T
  0.0894092493988339  0.9235271459507430  0.6058899456787117   T   T   T
  0.8333333333333357  0.1666666666666643  0.4642857142857153   F   F   F
  0.6666666666666643  0.3333333333333357  0.3928571428571459   F   F   F
  0.9164604575000013  0.3329209150000025  0.3928571428571459   F   F   F
  0.6670790849999975  0.0835395424999987  0.3928571428571459   F   F   F
  0.9164604575000013  0.0835395424999987  0.3928571428571459   F   F   F
  0.5835395424999987  0.1670790849999975  0.4642857142857153   F   F   F
  0.8329209150000025  0.4164604575000013  0.4642857142857153   F   F   F
  0.5835395424999987  0.4164604575000013  0.4642857142857153   F   F   F
  0.8346928151280721  0.1685305110104665  0.6064519078072976   T   T   T
  0.6666666666666643  0.3333333333333357  0.5357142857142847   F   F   F
  0.9164604575000013  0.3329209150000025  0.5357142857142847   F   F   F
  0.6670790849999975  0.0835395424999987  0.5357142857142847   F   F   F
  0.9164604575000013  0.0835395424999987  0.5357142857142847   F   F   F
  0.5813448435363995  0.1705959746971430  0.6050636889799037   T   T   T
  0.8323095469558766  0.4176062523804518  0.6056414390565550   T   T   T
  0.5808001436394008  0.4157415226787720  0.6056963442278800   T   T   T
  0.8333333333333357  0.6666666666666643  0.4642857142857153   F   F   F
  0.6666666666666643  0.8333333333333357  0.3928571428571459   F   F   F
  0.9164604575000013  0.8329209150000025  0.3928571428571459   F   F   F
  0.6670790849999975  0.5835395424999987  0.3928571428571459   F   F   F
  0.9164604575000013  0.5835395424999987  0.3928571428571459   F   F   F
  0.5835395424999987  0.6670790849999975  0.4642857142857153   F   F   F
  0.8329209150000025  0.9164604575000013  0.4642857142857153   F   F   F
  0.5835395424999987  0.9164604575000013  0.4642857142857153   F   F   F
  0.8353812541878156  0.6703871878081031  0.6066533693866702   T   T   T
  0.6666666666666643  0.8333333333333357  0.5357142857142847   F   F   F
  0.9164604575000013  0.8329209150000025  0.5357142857142847   F   F   F
  0.6670790849999975  0.5835395424999987  0.5357142857142847   F   F   F
  0.9164604575000013  0.5835395424999987  0.5357142857142847   F   F   F
  0.5852476997430927  0.6703452615598735  0.6056112112483518   T   T   T
  0.8347222979006830  0.9192825017980155  0.6059174472976920   T   T   T
  0.5855460252070870  0.9196300803398216  0.6059107994290116   T   T   T
  0.2890374644979872  0.0925904016580503  0.6952953752060012   T   T   T
  0.3426894914126848  0.1816415275179324  0.6837592106959960   T   T   T
 
  0.00000000E+00  0.00000000E+00  0.00000000E+00
  0.00000000E+00  0.00000000E+00  0.00000000E+00
  0.00000000E+00  0.00000000E+00  0.00000000E+00
  0.00000000E+00  0.00000000E+00  0.00000000E+00
  0.00000000E+00  0.00000000E+00  0.00000000E+00
  0.00000000E+00  0.00000000E+00  0.00000000E+00
  0.00000000E+00  0.00000000E+00  0.00000000E+00
  0.00000000E+00  0.00000000E+00  0.00000000E+00
  0.00000000E+00  0.00000000E+00  0.00000000E+00
  0.00000000E+00  0.00000000E+00  0.00000000E+00
  0.00000000E+00  0.00000000E+00  0.00000000E+00
  0.00000000E+00  0.00000000E+00  0.00000000E+00
  0.00000000E+00  0.00000000E+00  0.00000000E+00
  0.00000000E+00  0.00000000E+00  0.00000000E+00
  0.00000000E+00  0.00000000E+00  0.00000000E+00
  0.00000000E+00  0.00000000E+00  0.00000000E+00
  0.00000000E+00  0.00000000E+00  0.00000000E+00
  0.00000000E+00  0.00000000E+00  0.00000000E+00
  0.00000000E+00  0.00000000E+00  0.00000000E+00
  0.00000000E+00  0.00000000E+00  0.00000000E+00
  0.00000000E+00  0.00000000E+00  0.00000000E+00
  0.00000000E+00  0.00000000E+00  0.00000000E+00
  0.00000000E+00  0.00000000E+00  0.00000000E+00
  0.00000000E+00  0.00000000E+00  0.00000000E+00
  0.00000000E+00  0.00000000E+00  0.00000000E+00
  0.00000000E+00  0.00000000E+00  0.00000000E+00
  0.00000000E+00  0.00000000E+00  0.00000000E+00
  0.00000000E+00  0.00000000E+00  0.00000000E+00
  0.00000000E+00  0.00000000E+00  0.00000000E+00
  0.00000000E+00  0.00000000E+00  0.00000000E+00
  0.00000000E+00  0.00000000E+00  0.00000000E+00
  0.00000000E+00  0.00000000E+00  0.00000000E+00
  0.00000000E+00  0.00000000E+00  0.00000000E+00
  0.00000000E+00  0.00000000E+00  0.00000000E+00
  0.00000000E+00  0.00000000E+00  0.00000000E+00
  0.00000000E+00  0.00000000E+00  0.00000000E+00
  0.00000000E+00  0.00000000E+00  0.00000000E+00
  0.00000000E+00  0.00000000E+00  0.00000000E+00
  0.00000000E+00  0.00000000E+00  0.00000000E+00
  0.00000000E+00  0.00000000E+00  0.00000000E+00
  0.00000000E+00  0.00000000E+00  0.00000000E+00
  0.00000000E+00  0.00000000E+00  0.00000000E+00
  0.00000000E+00  0.00000000E+00  0.00000000E+00
  0.00000000E+00  0.00000000E+00  0.00000000E+00
  0.00000000E+00  0.00000000E+00  0.00000000E+00
  0.00000000E+00  0.00000000E+00  0.00000000E+00
  0.00000000E+00  0.00000000E+00  0.00000000E+00
  0.00000000E+00  0.00000000E+00  0.00000000E+00
  0.00000000E+00  0.00000000E+00  0.00000000E+00
  0.00000000E+00  0.00000000E+00  0.00000000E+00
  0.00000000E+00  0.00000000E+00  0.00000000E+00
  0.00000000E+00  0.00000000E+00  0.00000000E+00
  0.00000000E+00  0.00000000E+00  0.00000000E+00
  0.00000000E+00  0.00000000E+00  0.00000000E+00
  0.00000000E+00  0.00000000E+00  0.00000000E+00
  0.00000000E+00  0.00000000E+00  0.00000000E+00
  0.00000000E+00  0.00000000E+00  0.00000000E+00
  0.00000000E+00  0.00000000E+00  0.00000000E+00
  0.00000000E+00  0.00000000E+00  0.00000000E+00
  0.00000000E+00  0.00000000E+00  0.00000000E+00
  0.00000000E+00  0.00000000E+00  0.00000000E+00
  0.00000000E+00  0.00000000E+00  0.00000000E+00
  0.00000000E+00  0.00000000E+00  0.00000000E+00
  0.00000000E+00  0.00000000E+00  0.00000000E+00
  0.00000000E+00  0.00000000E+00  0.00000000E+00
  0.00000000E+00  0.00000000E+00  0.00000000E+00
