Na Bi Se H O                            
   1.00000000000000     
    11.9801775753655839    0.0000000000000000    0.0000000000000007
    -0.0000000000000008   12.4298486419954219    0.0000000000000008
     0.0000000000000000    0.0000000000000000   35.9405327260967482
   Na   Bi   Se   H    O 
    16    16    32     1     1
Selective dynamics
Direct
  0.0000000000000000  0.0000000000000000  0.4583333333333357   F   F   F
  0.2500000000000000  0.7500000000000000  0.4583333333333357   F   F   F
  0.2500000000000000  0.5000000000000000  0.3750000000000000   F   F   F
  0.0000000000000000  0.2500000000000000  0.3750000000000000   F   F   F
  0.2500000000000000  0.0000000000000000  0.3750000000000000   F   F   F
  0.0000000000000000  0.7500000000000000  0.3750000000000000   F   F   F
  0.0000000000000000  0.5000000000000000  0.4583333333333357   F   F   F
  0.2500000000000000  0.2500000000000000  0.4583333333333357   F   F   F
  0.2500000000000000  0.7598766449999985  0.3750000000000000   F   F   F
  0.0000000000000000  0.5098766449999985  0.3750000000000000   F   F   F
  0.0000000000000000  0.7401233550000015  0.4583333333333357   F   F   F
  0.0000000000000000  0.9901233550000015  0.3750000000000000   F   F   F
  0.0000000000000000  0.2598766449999985  0.4583333333333357   F   F   F
  0.2500000000000000  0.0098766449999985  0.4583333333333357   F   F   F
  0.2500000000000000  0.2401233550000015  0.3750000000000000   F   F   F
  0.2500000000000000  0.4901233550000015  0.4583333333333357   F   F   F
  0.0094703590623126  0.0021840334165759  0.6259626380741494   T   T   T
  0.2567800620173770  0.7509088157647099  0.6249683444205019   T   T   T
  0.2500000000000000  0.5000000000000000  0.5416666666666643   F   F   F
  0.0000000000000000  0.2500000000000000  0.5416666666666643   F   F   F
  0.2616941907590657  0.0091678859285551  0.5503230385566553   T   T   T
  0.0157004173254904  0.7564260560467346  0.5495321312545514   T   T   T
  0.0111324656932155  0.4996297444748947  0.6190911275530340   T   T   T
  0.2594236652993445  0.2531070249249012  0.6335577299152035   T   T   T
  0.2500000000000000  0.7598766449999985  0.5416666666666643   F   F   F
  0.0000000000000000  0.5098766449999985  0.5416666666666643   F   F   F
  0.0069292664076244  0.7455673630858044  0.6262641170857250   T   T   T
  0.0000000000000000  0.9901233550000015  0.5416666666666643   F   F   F
  0.9874474463240119  0.2656153432685926  0.6281359996835363   T   T   T
  0.2595732654261127  0.0119681570132641  0.6276908641542036   T   T   T
  0.2500000000000000  0.2401233550000015  0.5416666666666643   F   F   F
  0.2370581725134357  0.4946419443139263  0.6318447327446322   T   T   T
  0.5000000000000000  0.0000000000000000  0.4583333333333357   F   F   F
  0.7500000000000000  0.7500000000000000  0.4583333333333357   F   F   F
  0.7500000000000000  0.5000000000000000  0.3750000000000000   F   F   F
  0.5000000000000000  0.2500000000000000  0.3750000000000000   F   F   F
  0.7500000000000000  0.0000000000000000  0.3750000000000000   F   F   F
  0.5000000000000000  0.7500000000000000  0.3750000000000000   F   F   F
  0.5000000000000000  0.5000000000000000  0.4583333333333357   F   F   F
  0.7500000000000000  0.2500000000000000  0.4583333333333357   F   F   F
  0.7500000000000000  0.7598766449999985  0.3750000000000000   F   F   F
  0.5000000000000000  0.5098766449999985  0.3750000000000000   F   F   F
  0.5000000000000000  0.7401233550000015  0.4583333333333357   F   F   F
  0.5000000000000000  0.9901233550000015  0.3750000000000000   F   F   F
  0.5000000000000000  0.2598766449999985  0.4583333333333357   F   F   F
  0.7500000000000000  0.0098766449999985  0.4583333333333357   F   F   F
  0.7500000000000000  0.2401233550000015  0.3750000000000000   F   F   F
  0.7500000000000000  0.4901233550000015  0.4583333333333357   F   F   F
  0.5099754656067361  0.0020929549818973  0.6254931359433158   T   T   T
  0.7575955819921774  0.7524257273919943  0.6249101318107435   T   T   T
  0.7500000000000000  0.5000000000000000  0.5416666666666643   F   F   F
  0.5000000000000000  0.2500000000000000  0.5416666666666643   F   F   F
  0.7626180047762006  0.9919000530269173  0.5496453599703699   T   T   T
  0.5086330300135131  0.7578583564525374  0.5502772213496101   T   T   T
  0.5085549274620789  0.4951798789347919  0.6188305860533490   T   T   T
  0.7586175935540922  0.2546214632413708  0.6187244523696265   T   T   T
  0.7500000000000000  0.7598766449999985  0.5416666666666643   F   F   F
  0.5000000000000000  0.5098766449999985  0.5416666666666643   F   F   F
  0.5079177316046781  0.7465541264362869  0.6264640914474953   T   T   T
  0.5000000000000000  0.9901233550000015  0.5416666666666643   F   F   F
  0.4948208177472964  0.2652616622156714  0.6282967165660978   T   T   T
  0.7587230153731994  0.0081896855214296  0.6265847787921501   T   T   T
  0.7500000000000000  0.2401233550000015  0.5416666666666643   F   F   F
  0.7376948671181154  0.4887370010136323  0.6282346035174058   T   T   T
  0.2221905912640523  0.3083851322822753  0.7027630293728251   T   T   T
  0.2504741999037492  0.2399919852179409  0.6931779014044821   T   T   T
 
  0.00000000E+00  0.00000000E+00  0.00000000E+00
  0.00000000E+00  0.00000000E+00  0.00000000E+00
  0.00000000E+00  0.00000000E+00  0.00000000E+00
  0.00000000E+00  0.00000000E+00  0.00000000E+00
  0.00000000E+00  0.00000000E+00  0.00000000E+00
  0.00000000E+00  0.00000000E+00  0.00000000E+00
  0.00000000E+00  0.00000000E+00  0.00000000E+00
  0.00000000E+00  0.00000000E+00  0.00000000E+00
  0.00000000E+00  0.00000000E+00  0.00000000E+00
  0.00000000E+00  0.00000000E+00  0.00000000E+00
  0.00000000E+00  0.00000000E+00  0.00000000E+00
  0.00000000E+00  0.00000000E+00  0.00000000E+00
  0.00000000E+00  0.00000000E+00  0.00000000E+00
  0.00000000E+00  0.00000000E+00  0.00000000E+00
  0.00000000E+00  0.00000000E+00  0.00000000E+00
  0.00000000E+00  0.00000000E+00  0.00000000E+00
  0.00000000E+00  0.00000000E+00  0.00000000E+00
  0.00000000E+00  0.00000000E+00  0.00000000E+00
  0.00000000E+00  0.00000000E+00  0.00000000E+00
  0.00000000E+00  0.00000000E+00  0.00000000E+00
  0.00000000E+00  0.00000000E+00  0.00000000E+00
  0.00000000E+00  0.00000000E+00  0.00000000E+00
  0.00000000E+00  0.00000000E+00  0.00000000E+00
  0.00000000E+00  0.00000000E+00  0.00000000E+00
  0.00000000E+00  0.00000000E+00  0.00000000E+00
  0.00000000E+00  0.00000000E+00  0.00000000E+00
  0.00000000E+00  0.00000000E+00  0.00000000E+00
  0.00000000E+00  0.00000000E+00  0.00000000E+00
  0.00000000E+00  0.00000000E+00  0.00000000E+00
  0.00000000E+00  0.00000000E+00  0.00000000E+00
  0.00000000E+00  0.00000000E+00  0.00000000E+00
  0.00000000E+00  0.00000000E+00  0.00000000E+00
  0.00000000E+00  0.00000000E+00  0.00000000E+00
  0.00000000E+00  0.00000000E+00  0.00000000E+00
  0.00000000E+00  0.00000000E+00  0.00000000E+00
  0.00000000E+00  0.00000000E+00  0.00000000E+00
  0.00000000E+00  0.00000000E+00  0.00000000E+00
  0.00000000E+00  0.00000000E+00  0.00000000E+00
  0.00000000E+00  0.00000000E+00  0.00000000E+00
  0.00000000E+00  0.00000000E+00  0.00000000E+00
  0.00000000E+00  0.00000000E+00  0.00000000E+00
  0.00000000E+00  0.00000000E+00  0.00000000E+00
  0.00000000E+00  0.00000000E+00  0.00000000E+00
  0.00000000E+00  0.00000000E+00  0.00000000E+00
  0.00000000E+00  0.00000000E+00  0.00000000E+00
  0.00000000E+00  0.00000000E+00  0.00000000E+00
  0.00000000E+00  0.00000000E+00  0.00000000E+00
  0.00000000E+00  0.00000000E+00  0.00000000E+00
  0.00000000E+00  0.00000000E+00  0.00000000E+00
  0.00000000E+00  0.00000000E+00  0.00000000E+00
  0.00000000E+00  0.00000000E+00  0.00000000E+00
  0.00000000E+00  0.00000000E+00  0.00000000E+00
  0.00000000E+00  0.00000000E+00  0.00000000E+00
  0.00000000E+00  0.00000000E+00  0.00000000E+00
  0.00000000E+00  0.00000000E+00  0.00000000E+00
  0.00000000E+00  0.00000000E+00  0.00000000E+00
  0.00000000E+00  0.00000000E+00  0.00000000E+00
  0.00000000E+00  0.00000000E+00  0.00000000E+00
  0.00000000E+00  0.00000000E+00  0.00000000E+00
  0.00000000E+00  0.00000000E+00  0.00000000E+00
  0.00000000E+00  0.00000000E+00  0.00000000E+00
  0.00000000E+00  0.00000000E+00  0.00000000E+00
  0.00000000E+00  0.00000000E+00  0.00000000E+00
  0.00000000E+00  0.00000000E+00  0.00000000E+00
  0.00000000E+00  0.00000000E+00  0.00000000E+00
  0.00000000E+00  0.00000000E+00  0.00000000E+00
