Na Bi Se H O
 1.0000000000000000
    11.9801775753655839    0.0000000000000000    0.0000000000000007
    -0.0000000000000008   12.4298486419954219    0.0000000000000008
     0.0000000000000000    0.0000000000000000   35.9405327260967482
Na Bi Se H O
16 16 32 1 1
Selective dynamics
Cartesian
  0.0000000000000000  0.0000000000000000 16.4727441661276792   F   F   F
  2.9950443938413955  9.3223864814965669 16.4727441661276792   F   F   F
  2.9950443938413955  6.2149243209977127 13.4776997722862824   F   F   F
 -0.0000000000000002  3.1074621604988555 13.4776997722862824   F   F   F
  2.9950443938413960  0.0000000000000000 13.4776997722862824   F   F   F
 -0.0000000000000006  9.3223864814965669 13.4776997722862824   F   F   F
 -0.0000000000000004  6.2149243209977110 16.4727441661276792   F   F   F
  2.9950443938413960  3.1074621604988555 16.4727441661276792   F   F   F
  2.9950443938413955  9.4451516839372918 13.4776997722862824   F   F   F
 -0.0000000000000004  6.3376895234384358 13.4776997722862824   F   F   F
 -0.0000000000000006  9.1996212790558420 16.4727441661276792   F   F   F
 -0.0000000000000008 12.3070834395546971 13.4776997722862824   F   F   F
 -0.0000000000000002  3.2302273629395799 16.4727441661276792   F   F   F
  2.9950443938413960  0.1227652024407259 16.4727441661276792   F   F   F
  2.9950443938413960  2.9846969580581311 13.4776997722862824   F   F   F
  2.9950443938413955  6.0921591185569861 16.4727441661276792   F   F   F
  0.1134565832689987  0.0271472047970747 22.4974306790177465   T   T   T
  3.0762707407815228  9.3336829238953829 22.4616952354195050   T   T   T
  2.9950443938413955  6.2149243209977127 19.4677885599690761   F   F   F
 -0.0000000000000002  3.1074621604988555 19.4677885599690761   F   F   F
  3.1351428757351973  0.1139554344590579 19.7789031771704593   T   T   T
  0.1880937875666854  9.4022613855224950 19.7504775473958851   T   T   T
  0.1333689158564080  6.2103221008618172 22.2504649302559514   T   T   T
  3.1079415775383827  3.1460820100423210 22.7704023258889023   T   T   T
  2.9950443938413955  9.4451516839372918 19.4677885599690761   F   F   F
 -0.0000000000000004  6.3376895234384358 19.4677885599690761   F   F   F
  0.0830138420303678  9.2672894755682282 22.5082659952995741   T   T   T
 -0.0000000000000008 12.3070834395546971 19.4677885599690761   F   F   F
 -0.1503818220626274  3.3015585138203036 22.5755424530657578   T   T   T
  3.1097338136223120  0.1487623801984707 22.5595440450060991   T   T   T
  2.9950443938413960  2.9846969580581311 19.4677885599690761   F   F   F
  2.8399990024026338  6.1483244998043967 22.7088362950203404   T   T   T
  5.9900887876827920  0.0000000000000000 16.4727441661276792   F   F   F
  8.9851331815241871  9.3223864814965669 16.4727441661276792   F   F   F
  8.9851331815241871  6.2149243209977127 13.4776997722862824   F   F   F
  5.9900887876827920  3.1074621604988555 13.4776997722862824   F   F   F
  8.9851331815241871  0.0000000000000000 13.4776997722862824   F   F   F
  5.9900887876827911  9.3223864814965669 13.4776997722862824   F   F   F
  5.9900887876827920  6.2149243209977110 16.4727441661276792   F   F   F
  8.9851331815241871  3.1074621604988555 16.4727441661276792   F   F   F
  8.9851331815241871  9.4451516839372918 13.4776997722862824   F   F   F
  5.9900887876827920  6.3376895234384358 13.4776997722862824   F   F   F
  5.9900887876827911  9.1996212790558420 16.4727441661276792   F   F   F
  5.9900887876827911 12.3070834395546971 13.4776997722862824   F   F   F
  5.9900887876827920  3.2302273629395799 16.4727441661276792   F   F   F
  8.9851331815241871  0.1227652024407259 16.4727441661276792   F   F   F
  8.9851331815241871  2.9846969580581311 13.4776997722862824   F   F   F
  8.9851331815241871  6.0921591185569861 16.4727441661276792   F   F   F
  6.1095966370484103  0.0260151136394597 22.4805565223196240   T   T   T
  9.0761296025787566  9.3525379058258000 22.4596030432135407   T   T   T
  8.9851331815241871  6.2149243209977127 19.4677885599690761   F   F   F
  5.9900887876827920  3.1074621604988555 19.4677885599690761   F   F   F
  9.1362991193898857 -0.1006811148836277 19.7545470477621983   T   T   T
  6.0935140202581097  9.4200646627764559 19.7772564823413539   T   T   T
  6.0925783378228271  6.1550109457210462 22.2411009299599058   T   T   T
  9.0883734825745783  3.1649062490936761 22.2372864288268133   T   T   T
  8.9851331815241871  9.4451516839372918 19.4677885599690761   F   F   F
  5.9900887876827920  6.3376895234384358 19.4677885599690761   F   F   F
  6.0849446183009350  9.2795547946601946 22.5154531803932727   T   T   T
  5.9900887876827911 12.3070834395546971 19.4677885599690761   F   F   F
  5.9280412646002087  3.2971623118649163 22.5813187034428537   T   T   T
  9.0896364546877599  0.1017965514568939 22.5197907478532429   T   T   T
  8.9851331815241871  2.9846969580581311 19.4677885599690761   F   F   F
  8.8377155045107507  6.0749269483421751 22.5790863273837417   T   T   T
  2.6618827389188215  3.8331805177104457 25.2576776558648675   T   T   T
  3.0007253928945148  2.9830640515510423 24.9131830504349274   T   T   T
