Nb Ni Te O                              
   1.00000000000000     
    15.2712326791044521    0.0000000000000000   -0.0389428208742573
    -0.0008273127015165   10.3351476022520892    3.1708026260560773
     0.0000000000000000    0.0000000000000000   42.9198283329956283
   Nb   Ni   Te   O 
    16    40    48     1
Selective dynamics
Direct
  0.3126821075000024  0.4526124449999998  0.5831159916666664   F   F   F
  0.0626821075000024  0.9526124449999998  0.4164493250000021   F   F   F
  0.0626184400000014  0.4602864599999990  0.5831151733333328   F   F   F
  0.3126184400000014  0.9602864599999990  0.4164485066666685   F   F   F
  0.1873178924999976  0.5473875550000002  0.4168840083333336   F   F   F
  0.4373178924999976  0.0473875550000002  0.5835506749999979   F   F   F
  0.4373815599999986  0.5397135400000010  0.4168848266666672   F   F   F
  0.1873815599999986  0.0397135400000010  0.5835514933333315   F   F   F
  0.3137821449999976  0.3429298799999998  0.4148229166666653   F   F   F
  0.0637821449999976  0.8429298799999998  0.5814895833333367   F   F   F
  0.0612431500000028  0.3456829300000024  0.4145063166666674   F   F   F
  0.3112431500000028  0.8456829300000024  0.5811729833333317   F   F   F
  0.1862178550000024  0.6570701200000002  0.5851770833333347   F   F   F
  0.4362178550000024  0.1570701200000002  0.4185104166666633   F   F   F
  0.4387568499999972  0.6543170699999976  0.5854936833333326   F   F   F
  0.1887568499999972  0.1543170699999976  0.4188270166666683   F   F   F
  0.3131006300000010  0.7371406899999968  0.3978672666666654   F   F   F
  0.0631006300000010  0.2371406899999968  0.5645339333333368   F   F   F
  0.0614853399999973  0.7366909799999988  0.3974964433333312   F   F   F
  0.3114853399999973  0.2366909799999988  0.5641631100000026   F   F   F
  0.1867809810232188  0.2642935854579775  0.6019343681920191   T   T   T
  0.4368993699999990  0.7628593100000032  0.4354660666666703   F   F   F
  0.4390220463011048  0.2637822426877889  0.6019384881767422   T   T   T
  0.1885146600000027  0.7633090200000012  0.4358368899999974   F   F   F
  0.0629194227619720  0.6141720157243995  0.6233277348970887   T   T   T
  0.3122185725000008  0.1124066349999993  0.4633602783333330   F   F   F
  0.4377814274999992  0.3875933650000007  0.3699730550000027   F   F   F
  0.1877814274999992  0.8875933650000007  0.5366397216666670   F   F   F
  0.3090177174999980  0.2065692349999964  0.3743134783333346   F   F   F
  0.0590177174999980  0.7065692349999964  0.5409801449999989   F   F   F
  0.0650183500000026  0.2025331800000032  0.3763381733333304   F   F   F
  0.3150183500000026  0.7025331800000032  0.5430048400000018   F   F   F
  0.1891178545373293  0.7929277558573631  0.6265031380408459   T   T   T
  0.4409822825000020  0.2934307649999965  0.4590198550000011   F   F   F
  0.4334275167003199  0.7984232030769505  0.6238486272788961   T   T   T
  0.1849816499999974  0.2974668199999968  0.4569951599999982   F   F   F
  0.3104614699999999  0.5612521600000022  0.3668148933333342   F   F   F
  0.0604614699999999  0.0612521600000022  0.5334815599999985   F   F   F
  0.0639069550000002  0.5639699500000006  0.3655532666666659   F   F   F
  0.3139069550000002  0.0639699500000006  0.5322199333333302   F   F   F
  0.1897333229128364  0.4385938342867135  0.6334171018918795   T   T   T
  0.4395385300000001  0.9387478399999978  0.4665184400000015   F   F   F
  0.4348145595819872  0.4365450340260182  0.6337960745795499   T   T   T
  0.1860930449999998  0.9360300499999994  0.4677800666666698   F   F   F
  0.3134643249999982  0.6065555899999993  0.4621706266666692   F   F   F
  0.0631999544018527  0.1082679713897789  0.6287838122807372   T   T   T
  0.0622205075000011  0.6099406949999988  0.4619624516666647   F   F   F
  0.3122393631719476  0.1125089203549692  0.6286477789473111   T   T   T
  0.1865356750000018  0.3934444100000007  0.5378293733333308   F   F   F
  0.4365356750000018  0.8934444100000007  0.3711627066666665   F   F   F
  0.4377794924999989  0.3900593050000012  0.5380375483333353   F   F   F
  0.1877794924999989  0.8900593050000012  0.3713708816666639   F   F   F
  0.8126821075000024  0.4526124449999998  0.5831159916666664   F   F   F
  0.5626821075000024  0.9526124449999998  0.4164493250000021   F   F   F
  0.5626184400000014  0.4602864599999990  0.5831151733333328   F   F   F
  0.8126184400000014  0.9602864599999990  0.4164485066666685   F   F   F
  0.6873178924999976  0.5473875550000002  0.4168840083333336   F   F   F
  0.9373178924999976  0.0473875550000002  0.5835506749999979   F   F   F
  0.9373815599999986  0.5397135400000010  0.4168848266666672   F   F   F
  0.6873815599999986  0.0397135400000010  0.5835514933333315   F   F   F
  0.8137821449999976  0.3429298799999998  0.4148229166666653   F   F   F
  0.5637821449999976  0.8429298799999998  0.5814895833333367   F   F   F
  0.5612431500000028  0.3456829300000024  0.4145063166666674   F   F   F
  0.8112431500000028  0.8456829300000024  0.5811729833333317   F   F   F
  0.6862178550000024  0.6570701200000002  0.5851770833333347   F   F   F
  0.9362178550000024  0.1570701200000002  0.4185104166666633   F   F   F
  0.9387568499999972  0.6543170699999976  0.5854936833333326   F   F   F
  0.6887568499999972  0.1543170699999976  0.4188270166666683   F   F   F
  0.8131006300000010  0.7371406899999968  0.3978672666666654   F   F   F
  0.5631006300000010  0.2371406899999968  0.5645339333333368   F   F   F
  0.5614853399999973  0.7366909799999988  0.3974964433333312   F   F   F
  0.8114853399999973  0.2366909799999988  0.5641631100000026   F   F   F
  0.6875552033685466  0.2617306474045833  0.6017268132613651   T   T   T
  0.9368993699999990  0.7628593100000032  0.4354660666666703   F   F   F
  0.9385522072513552  0.2643797425814256  0.6020001746112769   T   T   T
  0.6885146600000027  0.7633090200000012  0.4358368899999974   F   F   F
  0.5566587194199286  0.6117969290838587  0.6255775245510549   T   T   T
  0.8122185725000008  0.1124066349999993  0.4633602783333330   F   F   F
  0.9377814274999992  0.3875933650000007  0.3699730550000027   F   F   F
  0.6877814274999992  0.8875933650000007  0.5366397216666670   F   F   F
  0.8090177174999980  0.2065692349999964  0.3743134783333346   F   F   F
  0.5590177174999980  0.7065692349999964  0.5409801449999989   F   F   F
  0.5650183500000026  0.2025331800000032  0.3763381733333304   F   F   F
  0.8150183500000026  0.7025331800000032  0.5430048400000018   F   F   F
  0.7042939943819277  0.7947479751687823  0.6294789602372788   T   T   T
  0.9409822825000020  0.2934307649999965  0.4590198550000011   F   F   F
  0.9370630141883964  0.7972478833482413  0.6242184597336191   T   T   T
  0.6849816499999974  0.2974668199999968  0.4569951599999982   F   F   F
  0.8104614699999999  0.5612521600000022  0.3668148933333342   F   F   F
  0.5604614699999999  0.0612521600000022  0.5334815599999985   F   F   F
  0.5639069550000002  0.5639699500000006  0.3655532666666659   F   F   F
  0.8139069550000002  0.0639699500000006  0.5322199333333302   F   F   F
  0.6891557897487317  0.4360545174372064  0.6332377452969808   T   T   T
  0.9395385300000001  0.9387478399999978  0.4665184400000015   F   F   F
  0.9354782478923980  0.4367243119109645  0.6338497092985591   T   T   T
  0.6860930449999998  0.9360300499999994  0.4677800666666698   F   F   F
  0.8134643249999982  0.6065555899999993  0.4621706266666692   F   F   F
  0.5637347690743937  0.1070139931092911  0.6288383036809719   T   T   T
  0.5622205075000011  0.6099406949999988  0.4619624516666647   F   F   F
  0.8128087388639287  0.1104012266995369  0.6288280883646706   T   T   T
  0.6865356750000018  0.3934444100000007  0.5378293733333308   F   F   F
  0.9365356750000018  0.8934444100000007  0.3711627066666665   F   F   F
  0.9377794924999989  0.3900593050000012  0.5380375483333353   F   F   F
  0.6877794924999989  0.8900593050000012  0.3713708816666639   F   F   F
  0.6094064612835837  0.6834605139332837  0.6557936115873346   T   T   T
 
  0.00000000E+00  0.00000000E+00  0.00000000E+00
  0.00000000E+00  0.00000000E+00  0.00000000E+00
  0.00000000E+00  0.00000000E+00  0.00000000E+00
  0.00000000E+00  0.00000000E+00  0.00000000E+00
  0.00000000E+00  0.00000000E+00  0.00000000E+00
  0.00000000E+00  0.00000000E+00  0.00000000E+00
  0.00000000E+00  0.00000000E+00  0.00000000E+00
  0.00000000E+00  0.00000000E+00  0.00000000E+00
  0.00000000E+00  0.00000000E+00  0.00000000E+00
  0.00000000E+00  0.00000000E+00  0.00000000E+00
  0.00000000E+00  0.00000000E+00  0.00000000E+00
  0.00000000E+00  0.00000000E+00  0.00000000E+00
  0.00000000E+00  0.00000000E+00  0.00000000E+00
  0.00000000E+00  0.00000000E+00  0.00000000E+00
  0.00000000E+00  0.00000000E+00  0.00000000E+00
  0.00000000E+00  0.00000000E+00  0.00000000E+00
  0.00000000E+00  0.00000000E+00  0.00000000E+00
  0.00000000E+00  0.00000000E+00  0.00000000E+00
  0.00000000E+00  0.00000000E+00  0.00000000E+00
  0.00000000E+00  0.00000000E+00  0.00000000E+00
  0.00000000E+00  0.00000000E+00  0.00000000E+00
  0.00000000E+00  0.00000000E+00  0.00000000E+00
  0.00000000E+00  0.00000000E+00  0.00000000E+00
  0.00000000E+00  0.00000000E+00  0.00000000E+00
  0.00000000E+00  0.00000000E+00  0.00000000E+00
  0.00000000E+00  0.00000000E+00  0.00000000E+00
  0.00000000E+00  0.00000000E+00  0.00000000E+00
  0.00000000E+00  0.00000000E+00  0.00000000E+00
  0.00000000E+00  0.00000000E+00  0.00000000E+00
  0.00000000E+00  0.00000000E+00  0.00000000E+00
  0.00000000E+00  0.00000000E+00  0.00000000E+00
  0.00000000E+00  0.00000000E+00  0.00000000E+00
  0.00000000E+00  0.00000000E+00  0.00000000E+00
  0.00000000E+00  0.00000000E+00  0.00000000E+00
  0.00000000E+00  0.00000000E+00  0.00000000E+00
  0.00000000E+00  0.00000000E+00  0.00000000E+00
  0.00000000E+00  0.00000000E+00  0.00000000E+00
  0.00000000E+00  0.00000000E+00  0.00000000E+00
  0.00000000E+00  0.00000000E+00  0.00000000E+00
  0.00000000E+00  0.00000000E+00  0.00000000E+00
  0.00000000E+00  0.00000000E+00  0.00000000E+00
  0.00000000E+00  0.00000000E+00  0.00000000E+00
  0.00000000E+00  0.00000000E+00  0.00000000E+00
  0.00000000E+00  0.00000000E+00  0.00000000E+00
  0.00000000E+00  0.00000000E+00  0.00000000E+00
  0.00000000E+00  0.00000000E+00  0.00000000E+00
  0.00000000E+00  0.00000000E+00  0.00000000E+00
  0.00000000E+00  0.00000000E+00  0.00000000E+00
  0.00000000E+00  0.00000000E+00  0.00000000E+00
  0.00000000E+00  0.00000000E+00  0.00000000E+00
  0.00000000E+00  0.00000000E+00  0.00000000E+00
  0.00000000E+00  0.00000000E+00  0.00000000E+00
  0.00000000E+00  0.00000000E+00  0.00000000E+00
  0.00000000E+00  0.00000000E+00  0.00000000E+00
  0.00000000E+00  0.00000000E+00  0.00000000E+00
  0.00000000E+00  0.00000000E+00  0.00000000E+00
  0.00000000E+00  0.00000000E+00  0.00000000E+00
  0.00000000E+00  0.00000000E+00  0.00000000E+00
  0.00000000E+00  0.00000000E+00  0.00000000E+00
  0.00000000E+00  0.00000000E+00  0.00000000E+00
  0.00000000E+00  0.00000000E+00  0.00000000E+00
  0.00000000E+00  0.00000000E+00  0.00000000E+00
  0.00000000E+00  0.00000000E+00  0.00000000E+00
  0.00000000E+00  0.00000000E+00  0.00000000E+00
  0.00000000E+00  0.00000000E+00  0.00000000E+00
  0.00000000E+00  0.00000000E+00  0.00000000E+00
  0.00000000E+00  0.00000000E+00  0.00000000E+00
  0.00000000E+00  0.00000000E+00  0.00000000E+00
  0.00000000E+00  0.00000000E+00  0.00000000E+00
  0.00000000E+00  0.00000000E+00  0.00000000E+00
  0.00000000E+00  0.00000000E+00  0.00000000E+00
  0.00000000E+00  0.00000000E+00  0.00000000E+00
  0.00000000E+00  0.00000000E+00  0.00000000E+00
  0.00000000E+00  0.00000000E+00  0.00000000E+00
  0.00000000E+00  0.00000000E+00  0.00000000E+00
  0.00000000E+00  0.00000000E+00  0.00000000E+00
  0.00000000E+00  0.00000000E+00  0.00000000E+00
  0.00000000E+00  0.00000000E+00  0.00000000E+00
  0.00000000E+00  0.00000000E+00  0.00000000E+00
  0.00000000E+00  0.00000000E+00  0.00000000E+00
  0.00000000E+00  0.00000000E+00  0.00000000E+00
  0.00000000E+00  0.00000000E+00  0.00000000E+00
  0.00000000E+00  0.00000000E+00  0.00000000E+00
  0.00000000E+00  0.00000000E+00  0.00000000E+00
  0.00000000E+00  0.00000000E+00  0.00000000E+00
  0.00000000E+00  0.00000000E+00  0.00000000E+00
  0.00000000E+00  0.00000000E+00  0.00000000E+00
  0.00000000E+00  0.00000000E+00  0.00000000E+00
  0.00000000E+00  0.00000000E+00  0.00000000E+00
  0.00000000E+00  0.00000000E+00  0.00000000E+00
  0.00000000E+00  0.00000000E+00  0.00000000E+00
  0.00000000E+00  0.00000000E+00  0.00000000E+00
  0.00000000E+00  0.00000000E+00  0.00000000E+00
  0.00000000E+00  0.00000000E+00  0.00000000E+00
  0.00000000E+00  0.00000000E+00  0.00000000E+00
  0.00000000E+00  0.00000000E+00  0.00000000E+00
  0.00000000E+00  0.00000000E+00  0.00000000E+00
  0.00000000E+00  0.00000000E+00  0.00000000E+00
  0.00000000E+00  0.00000000E+00  0.00000000E+00
  0.00000000E+00  0.00000000E+00  0.00000000E+00
  0.00000000E+00  0.00000000E+00  0.00000000E+00
  0.00000000E+00  0.00000000E+00  0.00000000E+00
  0.00000000E+00  0.00000000E+00  0.00000000E+00
  0.00000000E+00  0.00000000E+00  0.00000000E+00
  0.00000000E+00  0.00000000E+00  0.00000000E+00
