Cu Se Cu Se Cu Se Cu Se Cu Se Cu Se Cu S
   1.00000000000000     
    12.9865198799999995    0.0000000000000000    0.0000000000000008
    -0.0000000000000008   12.9865198799999995    0.0000000000000008
     0.0000000000000000    0.0000000000000000   30.9134276499999991
   Cu   Se   O 
    48    32     1
Selective dynamics
Direct
  0.0000000000000000  0.0000000000000000  0.4285714285714306   F   F   F
  0.2500000000000000  0.2500000000000000  0.4285714285714306   F   F   F
  0.4270953549999987  0.1770953549999987  0.3935643642857158   F   F   F
  0.3229046450000013  0.4270953549999987  0.4635784928571454   F   F   F
  0.1770953549999987  0.0729046450000013  0.4635784928571454   F   F   F
  0.0729046450000013  0.3229046450000013  0.3935643642857158   F   F   F
  0.3645392049999998  0.1145392049999998  0.4659550814285751   F   F   F
  0.3854607950000002  0.3645392049999998  0.3911877757142861   F   F   F
  0.1145392049999998  0.1354607950000002  0.3911877757142861   F   F   F
  0.1354607950000002  0.3854607950000002  0.4659550814285751   F   F   F
  0.0007365507748816  0.9992544279268500  0.5763104403873101   T   T   T
  0.2506187480626778  0.2453844013081579  0.5727064181606991   T   T   T
  0.4270953549999987  0.1770953549999987  0.5364215071428546   F   F   F
  0.3131336200690242  0.4156321518040045  0.6078329893438621   T   T   T
  0.1852544591200456  0.0644770364823231  0.5985966563728766   T   T   T
  0.0729046450000013  0.3229046450000013  0.5364215071428546   F   F   F
  0.3666521308917510  0.1152565377748900  0.6111439818212787   T   T   T
  0.3854607950000002  0.3645392049999998  0.5340449185714320   F   F   F
  0.1145392049999998  0.1354607950000002  0.5340449185714320   F   F   F
  0.1350319948079530  0.3842931878273816  0.6105561946397273   T   T   T
  0.0000000000000000  0.5000000000000000  0.4285714285714306   F   F   F
  0.2500000000000000  0.7500000000000000  0.4285714285714306   F   F   F
  0.4270953549999987  0.6770953549999987  0.3935643642857158   F   F   F
  0.3229046450000013  0.9270953549999987  0.4635784928571454   F   F   F
  0.1770953549999987  0.5729046450000013  0.4635784928571454   F   F   F
  0.0729046450000013  0.8229046450000013  0.3935643642857158   F   F   F
  0.3645392049999998  0.6145392049999998  0.4659550814285751   F   F   F
  0.3854607950000002  0.8645392049999998  0.3911877757142861   F   F   F
  0.1145392049999998  0.6354607950000002  0.3911877757142861   F   F   F
  0.1354607950000002  0.8854607950000002  0.4659550814285751   F   F   F
  0.0056789961179007  0.5042855528390646  0.5760849770379934   T   T   T
  0.2408695964534289  0.7611172986765027  0.5681360145966892   T   T   T
  0.4270953549999987  0.6770953549999987  0.5364215071428546   F   F   F
  0.3153946209828433  0.9316118160886546  0.5996646800946053   T   T   T
  0.2018666555719122  0.5670329931604741  0.5960855256020281   T   T   T
  0.0729046450000013  0.8229046450000013  0.5364215071428546   F   F   F
  0.3650473252548778  0.6413867630576249  0.6140509938774343   T   T   T
  0.3854607950000002  0.8645392049999998  0.5340449185714320   F   F   F
  0.1145392049999998  0.6354607950000002  0.5340449185714320   F   F   F
  0.1320227170512780  0.8847254939073323  0.6124909021251739   T   T   T
  0.5000000000000000  0.0000000000000000  0.4285714285714306   F   F   F
  0.7500000000000000  0.2500000000000000  0.4285714285714306   F   F   F
  0.9270953549999987  0.1770953549999987  0.3935643642857158   F   F   F
  0.8229046450000013  0.4270953549999987  0.4635784928571454   F   F   F
  0.6770953549999987  0.0729046450000013  0.4635784928571454   F   F   F
  0.5729046450000013  0.3229046450000013  0.3935643642857158   F   F   F
  0.8645392049999998  0.1145392049999998  0.4659550814285751   F   F   F
  0.8854607950000002  0.3645392049999998  0.3911877757142861   F   F   F
  0.6145392049999998  0.1354607950000002  0.3911877757142861   F   F   F
  0.6354607950000002  0.3854607950000002  0.4659550814285751   F   F   F
  0.5000595520387208  0.0007639870724816  0.5770360443329281   T   T   T
  0.7558378481469248  0.2478223453366226  0.5751545932770412   T   T   T
  0.9270953549999987  0.1770953549999987  0.5364215071428546   F   F   F
  0.8286408038252873  0.4357606232996147  0.6012362021530677   T   T   T
  0.6855007475551957  0.0657482012102903  0.5985802996986109   T   T   T
  0.5729046450000013  0.3229046450000013  0.5364215071428546   F   F   F
  0.8687124732975775  0.1148683751496264  0.6115573460898815   T   T   T
  0.8854607950000002  0.3645392049999998  0.5340449185714320   F   F   F
  0.6145392049999998  0.1354607950000002  0.5340449185714320   F   F   F
  0.6487591760535167  0.3804418494151491  0.6103999639267812   T   T   T
  0.5000000000000000  0.5000000000000000  0.4285714285714306   F   F   F
  0.7500000000000000  0.7500000000000000  0.4285714285714306   F   F   F
  0.9270953549999987  0.6770953549999987  0.3935643642857158   F   F   F
  0.8229046450000013  0.9270953549999987  0.4635784928571454   F   F   F
  0.6770953549999987  0.5729046450000013  0.4635784928571454   F   F   F
  0.5729046450000013  0.8229046450000013  0.3935643642857158   F   F   F
  0.8645392049999998  0.6145392049999998  0.4659550814285680   F   F   F
  0.8854607950000002  0.8645392049999998  0.3911877757142861   F   F   F
  0.6145392049999998  0.6354607950000002  0.3911877757142861   F   F   F
  0.6354607950000002  0.8854607950000002  0.4659550814285680   F   F   F
  0.5234067696538389  0.4951449005414403  0.5727213765600254   T   T   T
  0.7529147821604099  0.7528175715615077  0.5758710493750030   T   T   T
  0.9270953549999987  0.6770953549999987  0.5364215071428546   F   F   F
  0.8160085840504081  0.9340573257750862  0.5993845843936398   T   T   T
  0.6995211599324875  0.5689005182743188  0.5969007227883338   T   T   T
  0.5729046450000013  0.8229046450000013  0.5364215071428546   F   F   F
  0.8750576531436778  0.6195713370185487  0.6124105515068692   T   T   T
  0.8854607950000002  0.8645392049999998  0.5340449185714320   F   F   F
  0.6145392049999998  0.6354607950000002  0.5340449185714320   F   F   F
  0.6330386939922263  0.8831083138177291  0.6111630900222025   T   T   T
  0.4230783888020753  0.5098851944428944  0.6231509559087556   T   T   T
 
  0.00000000E+00  0.00000000E+00  0.00000000E+00
  0.00000000E+00  0.00000000E+00  0.00000000E+00
  0.00000000E+00  0.00000000E+00  0.00000000E+00
  0.00000000E+00  0.00000000E+00  0.00000000E+00
  0.00000000E+00  0.00000000E+00  0.00000000E+00
  0.00000000E+00  0.00000000E+00  0.00000000E+00
  0.00000000E+00  0.00000000E+00  0.00000000E+00
  0.00000000E+00  0.00000000E+00  0.00000000E+00
  0.00000000E+00  0.00000000E+00  0.00000000E+00
  0.00000000E+00  0.00000000E+00  0.00000000E+00
  0.00000000E+00  0.00000000E+00  0.00000000E+00
  0.00000000E+00  0.00000000E+00  0.00000000E+00
  0.00000000E+00  0.00000000E+00  0.00000000E+00
  0.00000000E+00  0.00000000E+00  0.00000000E+00
  0.00000000E+00  0.00000000E+00  0.00000000E+00
  0.00000000E+00  0.00000000E+00  0.00000000E+00
  0.00000000E+00  0.00000000E+00  0.00000000E+00
  0.00000000E+00  0.00000000E+00  0.00000000E+00
  0.00000000E+00  0.00000000E+00  0.00000000E+00
  0.00000000E+00  0.00000000E+00  0.00000000E+00
  0.00000000E+00  0.00000000E+00  0.00000000E+00
  0.00000000E+00  0.00000000E+00  0.00000000E+00
  0.00000000E+00  0.00000000E+00  0.00000000E+00
  0.00000000E+00  0.00000000E+00  0.00000000E+00
  0.00000000E+00  0.00000000E+00  0.00000000E+00
  0.00000000E+00  0.00000000E+00  0.00000000E+00
  0.00000000E+00  0.00000000E+00  0.00000000E+00
  0.00000000E+00  0.00000000E+00  0.00000000E+00
  0.00000000E+00  0.00000000E+00  0.00000000E+00
  0.00000000E+00  0.00000000E+00  0.00000000E+00
  0.00000000E+00  0.00000000E+00  0.00000000E+00
  0.00000000E+00  0.00000000E+00  0.00000000E+00
  0.00000000E+00  0.00000000E+00  0.00000000E+00
  0.00000000E+00  0.00000000E+00  0.00000000E+00
  0.00000000E+00  0.00000000E+00  0.00000000E+00
  0.00000000E+00  0.00000000E+00  0.00000000E+00
  0.00000000E+00  0.00000000E+00  0.00000000E+00
  0.00000000E+00  0.00000000E+00  0.00000000E+00
  0.00000000E+00  0.00000000E+00  0.00000000E+00
  0.00000000E+00  0.00000000E+00  0.00000000E+00
  0.00000000E+00  0.00000000E+00  0.00000000E+00
  0.00000000E+00  0.00000000E+00  0.00000000E+00
  0.00000000E+00  0.00000000E+00  0.00000000E+00
  0.00000000E+00  0.00000000E+00  0.00000000E+00
  0.00000000E+00  0.00000000E+00  0.00000000E+00
  0.00000000E+00  0.00000000E+00  0.00000000E+00
  0.00000000E+00  0.00000000E+00  0.00000000E+00
  0.00000000E+00  0.00000000E+00  0.00000000E+00
  0.00000000E+00  0.00000000E+00  0.00000000E+00
  0.00000000E+00  0.00000000E+00  0.00000000E+00
  0.00000000E+00  0.00000000E+00  0.00000000E+00
  0.00000000E+00  0.00000000E+00  0.00000000E+00
  0.00000000E+00  0.00000000E+00  0.00000000E+00
  0.00000000E+00  0.00000000E+00  0.00000000E+00
  0.00000000E+00  0.00000000E+00  0.00000000E+00
  0.00000000E+00  0.00000000E+00  0.00000000E+00
  0.00000000E+00  0.00000000E+00  0.00000000E+00
  0.00000000E+00  0.00000000E+00  0.00000000E+00
  0.00000000E+00  0.00000000E+00  0.00000000E+00
  0.00000000E+00  0.00000000E+00  0.00000000E+00
  0.00000000E+00  0.00000000E+00  0.00000000E+00
  0.00000000E+00  0.00000000E+00  0.00000000E+00
  0.00000000E+00  0.00000000E+00  0.00000000E+00
  0.00000000E+00  0.00000000E+00  0.00000000E+00
  0.00000000E+00  0.00000000E+00  0.00000000E+00
  0.00000000E+00  0.00000000E+00  0.00000000E+00
  0.00000000E+00  0.00000000E+00  0.00000000E+00
  0.00000000E+00  0.00000000E+00  0.00000000E+00
  0.00000000E+00  0.00000000E+00  0.00000000E+00
  0.00000000E+00  0.00000000E+00  0.00000000E+00
  0.00000000E+00  0.00000000E+00  0.00000000E+00
  0.00000000E+00  0.00000000E+00  0.00000000E+00
  0.00000000E+00  0.00000000E+00  0.00000000E+00
  0.00000000E+00  0.00000000E+00  0.00000000E+00
  0.00000000E+00  0.00000000E+00  0.00000000E+00
  0.00000000E+00  0.00000000E+00  0.00000000E+00
  0.00000000E+00  0.00000000E+00  0.00000000E+00
  0.00000000E+00  0.00000000E+00  0.00000000E+00
  0.00000000E+00  0.00000000E+00  0.00000000E+00
  0.00000000E+00  0.00000000E+00  0.00000000E+00
  0.00000000E+00  0.00000000E+00  0.00000000E+00
