Cu Se O
 1.0000000000000000
    12.9865198799999995    0.0000000000000000    0.0000000000000008
    -0.0000000000000008   12.9865198799999995    0.0000000000000008
     0.0000000000000000    0.0000000000000000   30.9134276499999991
Cu Se O
48 32 1
Selective dynamics
Cartesian
  0.0000000000000000  0.0000000000000000 13.2486118500000014   F   F   F
  3.2466299699999999  3.2466299699999999 13.2486118500000014   F   F   F
  5.5464823183631573  2.2998523483631566 12.1664235009646742   F   F   F
  4.1934075916368432  5.5464823183631573 14.3308001990353286   F   F   F
  2.2998523483631566  0.9467776216368439 14.3308001990353286   F   F   F
  0.9467776216368436  4.1934075916368432 12.1664235009646742   F   F   F
  4.7340956327718953  1.4874656627718958 14.4042686978920038   F   F   F
  5.0057942772281043  4.7340956327718953 12.0929550021079990   F   F   F
  1.4874656627718958  1.7591643072281049 12.0929550021079990   F   F   F
  1.7591643072281047  5.0057942772281043 14.4042686978920038   F   F   F
  0.0095652312806465 -0.0096823865499118 17.8157311028528120   T   T   T
  3.2546653540166934  3.1866894058303350 17.7043184225014620   T   T   T
  5.5464823183631573  2.2998523483631566 16.5826274509646723   F   F   F
  4.0665159821227110  5.3976152021698702 18.7902011393646333   T   T   T
  2.4058107162211222  0.8373323160811342 18.5046744283147397   T   T   T
  0.9467776216368436  4.1934075916368432 16.5826274509646723   F   F   F
  4.7615351868701321  1.4967813191135373 18.8925552657650968   T   T   T
  5.0057942772281043  4.7340956327718953 16.5091589521080024   F   F   F
  1.4874656627718958  1.7591643072281049 16.5091589521080024   F   F   F
  1.7535956850095433  4.9906311234689005 18.8743847492545882   T   T   T
 -0.0000000000000004  6.4932599399999997 13.2486118500000014   F   F   F
  3.2466299699999994  9.7398899099999987 13.2486118500000014   F   F   F
  5.5464823183631573  8.7931122883631563 12.1664235009646742   F   F   F
  4.1934075916368432 12.0397422583631570 14.3308001990353286   F   F   F
  2.2998523483631561  7.4400375616368439 14.3308001990353286   F   F   F
  0.9467776216368432 10.6866675316368429 12.1664235009646742   F   F   F
  4.7340956327718953  7.9807256027718960 14.4042686978920038   F   F   F
  5.0057942772281043 11.2273555727718950 12.0929550021079990   F   F   F
  1.4874656627718954  8.2524242472281042 12.0929550021079990   F   F   F
  1.7591643072281042 11.4990542172281032 14.4042686978920038   F   F   F
  0.0737503959835518  6.5489143571413404 17.8087612579158368   T   T   T
  3.1280578028300128  9.8842649302743091 17.5630315825939824   T   T   T
  5.5464823183631573  8.7931122883631563 16.5826274509646723   F   F   F
  4.0958785154388000 12.0983953700782596 18.5376907023649053   T   T   T
  2.6215453356937632  7.3637852382943567 18.4270467689104969   T   T   T
  0.9467776216368432 10.6866675316368429 16.5826274509646723   F   F   F
  4.7406943465632860  8.3293819492167369 18.9824209726406679   T   T   T
  5.0057942772281043 11.2273555727718950 16.5091589521080024   F   F   F
  1.4874656627718954  8.2524242472281042 16.5091589521080024   F   F   F
  1.7145156395980050 11.4895052149704036 18.9341931891298572   T   T   T
  6.4932599399999997  0.0000000000000000 13.2486118500000014   F   F   F
  9.7398899099999987  3.2466299699999999 13.2486118500000014   F   F   F
 12.0397422583631570  2.2998523483631566 12.1664235009646742   F   F   F
 10.6866675316368429  5.5464823183631573 14.3308001990353286   F   F   F
  8.7931122883631563  0.9467776216368439 14.3308001990353286   F   F   F
  7.4400375616368430  4.1934075916368432 12.1664235009646742   F   F   F
 11.2273555727718950  1.4874656627718958 14.4042686978920038   F   F   F
 11.4990542172281032  4.7340956327718953 12.0929550021079990   F   F   F
  7.9807256027718960  1.7591643072281049 12.0929550021079990   F   F   F
  8.2524242472281042  5.0057942772281043 14.4042686978920038   F   F   F
  6.4940333137347732  0.0099215333048051 17.8381620079282648   T   T   T
  9.8157032410164327  3.2183498144222957 17.7799999068349344   T   T   T
 12.0397422583631570  2.2998523483631566 16.5826274509646723   F   F   F
 10.7611602722563049  5.6590139974016687 18.5862718358196233   T   T   T
  8.9022690858804001  0.8538403220916880 18.5041687874484175   T   T   T
  7.4400375616368430  4.1934075916368432 16.5826274509646723   F   F   F
 11.2815518044829979  1.4917404374639172 18.9053337721756378   T   T   T
 11.4990542172281032  4.7340956327718953 16.5091589521080024   F   F   F
  7.9807256027718960  1.7591643072281049 16.5091589521080024   F   F   F
  8.4251239371514242  4.9406156406138129 18.8695551224131322   T   T   T
  6.4932599399999997  6.4932599399999997 13.2486118500000014   F   F   F
  9.7398899099999987  9.7398899099999987 13.2486118500000014   F   F   F
 12.0397422583631570  8.7931122883631563 12.1664235009646742   F   F   F
 10.6866675316368429 12.0397422583631570 14.3308001990353286   F   F   F
  8.7931122883631563  7.4400375616368439 14.3308001990353286   F   F   F
  7.4400375616368430 10.6866675316368429 12.1664235009646742   F   F   F
 11.2273555727718950  7.9807256027718960 14.4042686978920038   F   F   F
 11.4990542172281032 11.2273555727718950 12.0929550021079990   F   F   F
  7.9807256027718960  8.2524242472281042 12.0929550021079990   F   F   F
  8.2524242472281042 11.4990542172281032 14.4042686978920038   F   F   F
  6.7972324194361970  6.4302090943620822 17.7047808378967666   T   T   T
  9.7777427864720146  9.7764803590968192 17.8021480205836333   T   T   T
 12.0397422583631570  8.7931122883631563 16.5826274509646723   F   F   F
 10.5971116990212550 12.1301540302377990 18.5290319841781255   T   T   T
  9.0843454499439051  7.3880378903117236 18.4522473081499463   T   T   T
  7.4400375616368430 10.6866675316368429 16.5826274509646723   F   F   F
 11.3639536086965300  8.0460754852695811 18.9317092761042858   T   T   T
 11.4990542172281032 11.2273555727718950 16.5091589521080024   F   F   F
  7.9807256027718960  8.2524242472281042 16.5091589521080024   F   F   F
  8.2209695843393131 11.4685036735872465 18.8931459657518843   T   T   T
  5.4943159069765404  6.6216342141503395 19.2637319905136941   T   T   T
