Ge Sb Te H O                            
   1.00000000000000     
     8.7539296461632610    0.0000000000000000   -0.0000000000000005
     4.3769648230816331    7.5811254565191044   -0.0000000000000004
     0.0000000000000000    0.0000000000000064   52.6154257406547643
   Ge   Sb   Te   H    O 
     4    16    16     1     1
Selective dynamics
Direct
  0.0833333333333357  0.4166666666666643  0.4613765550000011   F   F   F
  0.4388217570360808  0.2574282908292460  0.6583739499507288   T   T   T
  0.2144037126645486  0.0738191363223279  0.6695244696175706   T   T   T
  0.2500000000000000  0.0833333333333357  0.5327799616666695   F   F   F
  0.4166666666666643  0.2500000000000000  0.3899731483333326   F   F   F
  0.4166666666666643  0.2500000000000000  0.4941097450000029   F   F   F
  0.2500000000000000  0.0833333333333357  0.4286433649999992   F   F   F
  0.0833333333333357  0.4166666666666643  0.5656362116666642   F   F   F
  0.0833333333333357  0.4166666666666643  0.3571168983333308   F   F   F
  0.0833333333333357  0.9166666666666643  0.4613765550000011   F   F   F
  0.4082774586033651  0.6942923987817409  0.6544779785639463   T   T   T
  0.2326758676456180  0.5735351702850622  0.6897202342843300   T   T   T
  0.2500000000000000  0.5833333333333357  0.5327799616666695   F   F   F
  0.4166666666666643  0.7500000000000000  0.3899731483333326   F   F   F
  0.4166666666666643  0.7500000000000000  0.4941097450000029   F   F   F
  0.2500000000000000  0.5833333333333357  0.4286433649999992   F   F   F
  0.0833333333333357  0.9166666666666643  0.5656362116666642   F   F   F
  0.0833333333333357  0.9166666666666643  0.3571168983333308   F   F   F
  0.5833333333333357  0.4166666666666643  0.4613765550000011   F   F   F
  0.8143508546181621  0.2561028036742456  0.6567391563751244   T   T   T
  0.7382450779518663  0.0453934144442911  0.6917420879133189   T   T   T
  0.7500000000000000  0.0833333333333357  0.5327799616666695   F   F   F
  0.9166666666666643  0.2500000000000000  0.3899731483333326   F   F   F
  0.9166666666666643  0.2500000000000000  0.4941097450000029   F   F   F
  0.7500000000000000  0.0833333333333357  0.4286433649999992   F   F   F
  0.5833333333333357  0.4166666666666643  0.5656362116666642   F   F   F
  0.5833333333333357  0.4166666666666643  0.3571168983333308   F   F   F
  0.5833333333333357  0.9166666666666643  0.4613765550000011   F   F   F
  0.8970376293600282  0.7205966239051804  0.6600421204787850   T   T   T
  0.7093670428795349  0.5683107006312298  0.6890205958382367   T   T   T
  0.7500000000000000  0.5833333333333357  0.5327799616666695   F   F   F
  0.9166666666666643  0.7500000000000000  0.3899731483333326   F   F   F
  0.9166666666666643  0.7500000000000000  0.4941097450000029   F   F   F
  0.7500000000000000  0.5833333333333357  0.4286433649999992   F   F   F
  0.5833333333333357  0.9166666666666643  0.5656362116666642   F   F   F
  0.5833333333333357  0.9166666666666643  0.3571168983333308   F   F   F
  0.1060207929813970  0.1287669453683975  0.7148733882042606   T   T   T
  0.2040373757122893  0.0247462316363993  0.7070104380644509   T   T   T
 
  0.00000000E+00  0.00000000E+00  0.00000000E+00
  0.00000000E+00  0.00000000E+00  0.00000000E+00
  0.00000000E+00  0.00000000E+00  0.00000000E+00
  0.00000000E+00  0.00000000E+00  0.00000000E+00
  0.00000000E+00  0.00000000E+00  0.00000000E+00
  0.00000000E+00  0.00000000E+00  0.00000000E+00
  0.00000000E+00  0.00000000E+00  0.00000000E+00
  0.00000000E+00  0.00000000E+00  0.00000000E+00
  0.00000000E+00  0.00000000E+00  0.00000000E+00
  0.00000000E+00  0.00000000E+00  0.00000000E+00
  0.00000000E+00  0.00000000E+00  0.00000000E+00
  0.00000000E+00  0.00000000E+00  0.00000000E+00
  0.00000000E+00  0.00000000E+00  0.00000000E+00
  0.00000000E+00  0.00000000E+00  0.00000000E+00
  0.00000000E+00  0.00000000E+00  0.00000000E+00
  0.00000000E+00  0.00000000E+00  0.00000000E+00
  0.00000000E+00  0.00000000E+00  0.00000000E+00
  0.00000000E+00  0.00000000E+00  0.00000000E+00
  0.00000000E+00  0.00000000E+00  0.00000000E+00
  0.00000000E+00  0.00000000E+00  0.00000000E+00
  0.00000000E+00  0.00000000E+00  0.00000000E+00
  0.00000000E+00  0.00000000E+00  0.00000000E+00
  0.00000000E+00  0.00000000E+00  0.00000000E+00
  0.00000000E+00  0.00000000E+00  0.00000000E+00
  0.00000000E+00  0.00000000E+00  0.00000000E+00
  0.00000000E+00  0.00000000E+00  0.00000000E+00
  0.00000000E+00  0.00000000E+00  0.00000000E+00
  0.00000000E+00  0.00000000E+00  0.00000000E+00
  0.00000000E+00  0.00000000E+00  0.00000000E+00
  0.00000000E+00  0.00000000E+00  0.00000000E+00
  0.00000000E+00  0.00000000E+00  0.00000000E+00
  0.00000000E+00  0.00000000E+00  0.00000000E+00
  0.00000000E+00  0.00000000E+00  0.00000000E+00
  0.00000000E+00  0.00000000E+00  0.00000000E+00
  0.00000000E+00  0.00000000E+00  0.00000000E+00
  0.00000000E+00  0.00000000E+00  0.00000000E+00
  0.00000000E+00  0.00000000E+00  0.00000000E+00
  0.00000000E+00  0.00000000E+00  0.00000000E+00
