Ge Sb Te H O
 1.0000000000000000
     8.7539296461632610   -0.0000000000000000   -0.0000000000000005
     4.3769648230816331    7.5811254565191044   -0.0000000000000004
    -0.0000000000000000    0.0000000000000064   52.6154257406547643
Ge Sb Te H O
4 16 16 1 1
Selective dynamics
Cartesian
  2.5532294801309523  3.1588022735496315 24.2755238680816383   F   F   F
  4.9681693617252130  1.9515961688337957 34.6406256732142168   T   T   T
  2.1999787794947707  0.5596321335514701 35.2273150127146337   T   T   T
  2.5532294801309514  0.6317604547099285 28.0324445091814063   F   F   F
  4.7417118916717662  1.8952813641297785 20.5186032269818419   F   F   F
  4.7417118916717662  1.8952813641297790 25.9977945957813859   F   F   F
  2.5532294801309519  0.6317604547099279 22.5532531403818908   F   F   F
  2.5532294801309519  3.1588022735496315 29.7611900911727965   F   F   F
  2.5532294801309523  3.1588022735496306 18.7898576449904589   F   F   F
  4.7417118916717689  6.9493650018091842 24.2755238680816383   F   F   F
  6.6129255551288484  5.2635177786719831 34.4356374800253064   T   T   T
  4.5471714408675705  4.3480420796570947 36.2899237688141412   T   T   T
  4.7417118916717680  4.4223231829694809 28.0324445091814063   F   F   F
  6.9301943032125823  5.6858440923893312 20.5186032269818419   F   F   F
  6.9301943032125823  5.6858440923893312 25.9977945957813859   F   F   F
  4.7417118916717680  4.4223231829694800 22.5532531403818908   F   F   F
  4.7417118916717680  6.9493650018091842 29.7611900911727965   F   F   F
  4.7417118916717689  6.9493650018091824 18.7898576449904589   F   F   F
  6.9301943032125823  3.1588022735496315 24.2755238680816383   F   F   F
  8.2497230513950992  1.9415474844207457 34.5546103132354432   T   T   T
  6.6612308522391945  0.3441331698019169 36.3963044582886042   T   T   T
  6.9301943032125823  0.6317604547099285 28.0324445091814063   F   F   F
  9.1186767147533967  1.8952813641297785 20.5186032269818419   F   F   F
  9.1186767147533967  1.8952813641297790 25.9977945957813859   F   F   F
  6.9301943032125823  0.6317604547099279 22.5532531403818908   F   F   F
  6.9301943032125823  3.1588022735496315 29.7611900911727965   F   F   F
  6.9301943032125823  3.1588022735496306 18.7898576449904589   F   F   F
  9.1186767147533985  6.9493650018091842 24.2755238680816383   F   F   F
 11.0066303718431335  5.4629334093693140 34.7283971757559442   T   T   T
  8.6972251319181098  4.3084347197676074 36.2531119941084299   T   T   T
  9.1186767147533985  4.4223231829694809 28.0324445091814063   F   F   F
 11.3071591262942128  5.6858440923893312 20.5186032269818419   F   F   F
 11.3071591262942128  5.6858440923893312 25.9977945957813859   F   F   F
  9.1186767147533985  4.4223231829694800 22.5532531403818908   F   F   F
  9.1186767147533985  6.9493650018091842 29.7611900911727965   F   F   F
  9.1186767147533985  6.9493650018091824 18.7898576449904589   F   F   F
  1.4917069530427760  0.9761983674905896 37.6133676710316678   T   T   T
  1.8944422175494937  0.1876042866116174 37.1996552018478326   T   T   T
