Ag Te H O
 1.0000000000000000
     9.7061987978304263    0.0000000000000000    0.0000000000000006
    -4.7967556401228650    6.9464870236410938    0.0000000000000005
     0.0000000000000000    0.0000000000000000   39.0961864800002274
Ag Te H O
16 8 1 1
Selective dynamics
Cartesian
 -1.5900720357791396  4.6347515056749202 20.7669947526656848   F   F   F
  0.8083057842822928  1.1615079938543722 18.3291917273345462   F   F   F
  2.4832476063420525  1.6951526176765401 20.7888529418243166   F   F   F
 -2.3683006194897605  5.2052710001431208 15.8800190422726928   F   F   F
  0.0848697862806209  5.1683961294970873 18.3073335381759108   F   F   F
 -0.0270256826629480  1.9411655671995769 23.0815788036852325   T   T   T
  2.4574119110665231  1.7365296454923325 15.8690169844353566   F   F   F
  1.9186244884433870  6.3545553123665703 22.7871627891668886   T   T   T
 -0.0216689958187281  0.0410746472356615 20.8193491401643129   F   F   F
 -2.4200468158801605  3.5143181590562085 18.2768373398359145   F   F   F
  4.8090019269632815  0.0015523314551692 15.8375581402437557   F   F   F
  2.2755095062381936  3.4811334220042784 23.2037069393142161   T   T   T
  3.2630273631360733  4.6347515056749202 20.7669947526656848   F   F   F
  5.6614051831975063  1.1615079938543722 18.3291917273345462   F   F   F
  7.3363470052572657  1.6951526176765401 20.7888529418243166   F   F   F
  2.4847987794254527  5.2052710001431208 15.8800190422726928   F   F   F
  4.9379691851958345  5.1683961294970873 18.3073335381759108   F   F   F
  4.8357593529249225  2.5090555822083198 22.5077248390298053   T   T   T
  7.3105113099817363  1.7365296454923325 15.8690169844353566   F   F   F
  5.3181942124113242  5.4592124372837096 23.4376979285676335   T   T   T
  4.8314304030964852  0.0410746472356615 20.8193491401643129   F   F   F
  2.4330525830350527  3.5143181590562085 18.2768373398359145   F   F   F
  9.6621013258784956  0.0015523314551692 15.8375581402437557   F   F   F
  7.2920920737630794  3.6094847612015304 23.1920859542066324   T   T   T
  3.6050327300047540  7.0571457259327879 25.0532066865980667   T   T   T
  3.7678416689713363  6.9899247193644625 24.0932787807636544   T   T   T
