V As C H O                              
   1.00000000000000     
     9.3716560516584924    0.0000000000000000   -0.0000000000000006
     4.6858280258292497    8.1160922162664217   -0.0000000000000004
     0.0000000000000000    0.0000000000000042   34.3773314399999990
   V    As   C    H    O 
    36    18    18     1     1
Selective dynamics
Direct
  0.1666666666666643  0.0555555555555571  0.5264918266666641   F   F   F
  0.2780879394368228  0.1672309029164580  0.5862548886433530   T   T   T
  0.2777777777777786  0.1666666666666643  0.3598251599999998   F   F   F
  0.1666666666666643  0.0555555555555571  0.4205245200000007   F   F   F
  0.1933784866489887  0.0595979140087550  0.6451992221332361   T   T   T
  0.2777777777777786  0.1666666666666643  0.4735081733333359   F   F   F
  0.0555555555555571  0.2777777777777786  0.5568415066666645   F   F   F
  0.0555555555555571  0.2777777777777786  0.3901748400000002   F   F   F
  0.1666666666666643  0.3888888888888857  0.5264918266666641   F   F   F
  0.2782363396732279  0.4991797892211025  0.5862370381441835   T   T   T
  0.2777777777777786  0.5000000000000000  0.3598251599999998   F   F   F
  0.1666666666666643  0.3888888888888857  0.4205245200000007   F   F   F
  0.1406243344009681  0.3998019210860946  0.6448283900511171   T   T   T
  0.2777777777777786  0.5000000000000000  0.4735081733333359   F   F   F
  0.0555555555555571  0.6111111111111143  0.5568415066666645   F   F   F
  0.0555555555555571  0.6111111111111143  0.3901748400000002   F   F   F
  0.1666666666666643  0.7222222222222214  0.5264918266666641   F   F   F
  0.2789346263810089  0.8327556491726256  0.5862091232292883   T   T   T
  0.2777777777777786  0.8333333333333357  0.3598251599999998   F   F   F
  0.1666666666666643  0.7222222222222214  0.4205245200000007   F   F   F
  0.1935431122301310  0.6927565591526417  0.6450793770502017   T   T   T
  0.2777777777777786  0.8333333333333357  0.4735081733333359   F   F   F
  0.0555555555555571  0.9444444444444429  0.5568415066666645   F   F   F
  0.0555555555555571  0.9444444444444429  0.3901748400000002   F   F   F
  0.5000000000000000  0.0555555555555571  0.5264918266666641   F   F   F
  0.6067197671839821  0.1687426808667922  0.5873889916045769   T   T   T
  0.6111111111111143  0.1666666666666643  0.3598251599999998   F   F   F
  0.5000000000000000  0.0555555555555571  0.4205245200000007   F   F   F
  0.4962966527361772  0.0373845794851704  0.6438893911732677   T   T   T
  0.6111111111111143  0.1666666666666643  0.4735081733333359   F   F   F
  0.3888888888888857  0.2777777777777786  0.5568415066666645   F   F   F
  0.3888888888888857  0.2777777777777786  0.3901748400000002   F   F   F
  0.5000000000000000  0.3888888888888857  0.5264918266666641   F   F   F
  0.6113565617064154  0.5005242754930492  0.5868078295174115   T   T   T
  0.6111111111111143  0.5000000000000000  0.3598251599999998   F   F   F
  0.5000000000000000  0.3888888888888857  0.4205245200000007   F   F   F
  0.4950767005549395  0.4105833522129316  0.6438089772502593   T   T   T
  0.6111111111111143  0.5000000000000000  0.4735081733333359   F   F   F
  0.3888888888888857  0.6111111111111143  0.5568415066666645   F   F   F
  0.3888888888888857  0.6111111111111143  0.3901748400000002   F   F   F
  0.5000000000000000  0.7222222222222214  0.5264918266666641   F   F   F
  0.6115004044471988  0.8325617779118062  0.5867148364380341   T   T   T
  0.6111111111111143  0.8333333333333357  0.3598251599999998   F   F   F
  0.5000000000000000  0.7222222222222214  0.4205245200000007   F   F   F
  0.4741363305128061  0.7355981596214178  0.6456569049476641   T   T   T
  0.6111111111111143  0.8333333333333357  0.4735081733333359   F   F   F
  0.3888888888888857  0.9444444444444429  0.5568415066666645   F   F   F
  0.3888888888888857  0.9444444444444429  0.3901748400000002   F   F   F
  0.8333333333333357  0.0555555555555571  0.5264918266666641   F   F   F
  0.9464226474149555  0.1675578624170839  0.5872944847274582   T   T   T
  0.9444444444444429  0.1666666666666643  0.3598251599999998   F   F   F
  0.8333333333333357  0.0555555555555571  0.4205245200000007   F   F   F
  0.8321164995469204  0.0561292563046649  0.6374745686386163   T   T   T
  0.9444444444444429  0.1666666666666643  0.4735081733333359   F   F   F
  0.7222222222222214  0.2777777777777786  0.5568415066666645   F   F   F
  0.7222222222222214  0.2777777777777786  0.3901748400000002   F   F   F
  0.8333333333333357  0.3888888888888857  0.5264918266666641   F   F   F
  0.9429941312022692  0.5009124128988773  0.5862235459215057   T   T   T
  0.9444444444444429  0.5000000000000000  0.3598251599999998   F   F   F
  0.8333333333333357  0.3888888888888857  0.4205245200000007   F   F   F
  0.8423649126173629  0.3865024878570082  0.6432546852215495   T   T   T
  0.9444444444444429  0.5000000000000000  0.4735081733333359   F   F   F
  0.7222222222222214  0.6111111111111143  0.5568415066666645   F   F   F
  0.7222222222222214  0.6111111111111143  0.3901748400000002   F   F   F
  0.8333333333333357  0.7222222222222214  0.5264918266666641   F   F   F
  0.9461876027129819  0.8305830631549185  0.5874113164468966   T   T   T
  0.9444444444444429  0.8333333333333357  0.3598251599999998   F   F   F
  0.8333333333333357  0.7222222222222214  0.4205245200000007   F   F   F
  0.8415886549188585  0.7159918671061192  0.6431419873951327   T   T   T
  0.9444444444444429  0.8333333333333357  0.4735081733333359   F   F   F
  0.7222222222222214  0.9444444444444429  0.5568415066666645   F   F   F
  0.7222222222222214  0.9444444444444429  0.3901748400000002   F   F   F
  0.7367392304700218  0.1253065369317738  0.7005830063718577   T   T   T
  0.8457512296921834  0.0442513892584131  0.6905861607604464   T   T   T
 
  0.00000000E+00  0.00000000E+00  0.00000000E+00
  0.00000000E+00  0.00000000E+00  0.00000000E+00
  0.00000000E+00  0.00000000E+00  0.00000000E+00
  0.00000000E+00  0.00000000E+00  0.00000000E+00
  0.00000000E+00  0.00000000E+00  0.00000000E+00
  0.00000000E+00  0.00000000E+00  0.00000000E+00
  0.00000000E+00  0.00000000E+00  0.00000000E+00
  0.00000000E+00  0.00000000E+00  0.00000000E+00
  0.00000000E+00  0.00000000E+00  0.00000000E+00
  0.00000000E+00  0.00000000E+00  0.00000000E+00
  0.00000000E+00  0.00000000E+00  0.00000000E+00
  0.00000000E+00  0.00000000E+00  0.00000000E+00
  0.00000000E+00  0.00000000E+00  0.00000000E+00
  0.00000000E+00  0.00000000E+00  0.00000000E+00
  0.00000000E+00  0.00000000E+00  0.00000000E+00
  0.00000000E+00  0.00000000E+00  0.00000000E+00
  0.00000000E+00  0.00000000E+00  0.00000000E+00
  0.00000000E+00  0.00000000E+00  0.00000000E+00
  0.00000000E+00  0.00000000E+00  0.00000000E+00
  0.00000000E+00  0.00000000E+00  0.00000000E+00
  0.00000000E+00  0.00000000E+00  0.00000000E+00
  0.00000000E+00  0.00000000E+00  0.00000000E+00
  0.00000000E+00  0.00000000E+00  0.00000000E+00
  0.00000000E+00  0.00000000E+00  0.00000000E+00
  0.00000000E+00  0.00000000E+00  0.00000000E+00
  0.00000000E+00  0.00000000E+00  0.00000000E+00
  0.00000000E+00  0.00000000E+00  0.00000000E+00
  0.00000000E+00  0.00000000E+00  0.00000000E+00
  0.00000000E+00  0.00000000E+00  0.00000000E+00
  0.00000000E+00  0.00000000E+00  0.00000000E+00
  0.00000000E+00  0.00000000E+00  0.00000000E+00
  0.00000000E+00  0.00000000E+00  0.00000000E+00
  0.00000000E+00  0.00000000E+00  0.00000000E+00
  0.00000000E+00  0.00000000E+00  0.00000000E+00
  0.00000000E+00  0.00000000E+00  0.00000000E+00
  0.00000000E+00  0.00000000E+00  0.00000000E+00
  0.00000000E+00  0.00000000E+00  0.00000000E+00
  0.00000000E+00  0.00000000E+00  0.00000000E+00
  0.00000000E+00  0.00000000E+00  0.00000000E+00
  0.00000000E+00  0.00000000E+00  0.00000000E+00
  0.00000000E+00  0.00000000E+00  0.00000000E+00
  0.00000000E+00  0.00000000E+00  0.00000000E+00
  0.00000000E+00  0.00000000E+00  0.00000000E+00
  0.00000000E+00  0.00000000E+00  0.00000000E+00
  0.00000000E+00  0.00000000E+00  0.00000000E+00
  0.00000000E+00  0.00000000E+00  0.00000000E+00
  0.00000000E+00  0.00000000E+00  0.00000000E+00
  0.00000000E+00  0.00000000E+00  0.00000000E+00
  0.00000000E+00  0.00000000E+00  0.00000000E+00
  0.00000000E+00  0.00000000E+00  0.00000000E+00
  0.00000000E+00  0.00000000E+00  0.00000000E+00
  0.00000000E+00  0.00000000E+00  0.00000000E+00
  0.00000000E+00  0.00000000E+00  0.00000000E+00
  0.00000000E+00  0.00000000E+00  0.00000000E+00
  0.00000000E+00  0.00000000E+00  0.00000000E+00
  0.00000000E+00  0.00000000E+00  0.00000000E+00
  0.00000000E+00  0.00000000E+00  0.00000000E+00
  0.00000000E+00  0.00000000E+00  0.00000000E+00
  0.00000000E+00  0.00000000E+00  0.00000000E+00
  0.00000000E+00  0.00000000E+00  0.00000000E+00
  0.00000000E+00  0.00000000E+00  0.00000000E+00
  0.00000000E+00  0.00000000E+00  0.00000000E+00
  0.00000000E+00  0.00000000E+00  0.00000000E+00
  0.00000000E+00  0.00000000E+00  0.00000000E+00
  0.00000000E+00  0.00000000E+00  0.00000000E+00
  0.00000000E+00  0.00000000E+00  0.00000000E+00
  0.00000000E+00  0.00000000E+00  0.00000000E+00
  0.00000000E+00  0.00000000E+00  0.00000000E+00
  0.00000000E+00  0.00000000E+00  0.00000000E+00
  0.00000000E+00  0.00000000E+00  0.00000000E+00
  0.00000000E+00  0.00000000E+00  0.00000000E+00
  0.00000000E+00  0.00000000E+00  0.00000000E+00
  0.00000000E+00  0.00000000E+00  0.00000000E+00
  0.00000000E+00  0.00000000E+00  0.00000000E+00
