V As C H O
 1.0000000000000000
     9.3716560516584924   -0.0000000000000000   -0.0000000000000006
     4.6858280258292497    8.1160922162664217   -0.0000000000000004
    -0.0000000000000000    0.0000000000000042   34.3773314399999990
V As C H O
36 18 18 1 1
Selective dynamics
Cartesian
  1.8222664544891511  0.4508940120148031 18.0993840257710268   F   F   F
  3.3897597721870074  1.3572614294794576 20.1538786152127862   T   T   T
  3.3842091297655670  1.3526820360444050 12.3698287857710305   F   F   F
  1.8222664544891516  0.4508940120148033 14.4565108026869051   F   F   F
  2.0915422404077315  0.4837021659921883 22.1802275041044901   T   T   T
  3.3842091297655670  1.3526820360444056 16.2779474142289686   F   F   F
  1.8222664544891525  2.2544700600740080 19.1427250342289632   F   F   F
  1.8222664544891525  2.2544700600740075 13.4131697942289705   F   F   F
  3.3842091297655674  3.1562580841036105 18.0993840257710268   F   F   F
  4.9466059227496881  4.0513892018149011 20.1532649626865599   T   T   T
  4.9461518050419837  4.0580461081332118 12.3698287857710305   F   F   F
  3.3842091297655683  3.1562580841036105 14.4565108026869051   F   F   F
  3.1912859411049244  3.2448292597752424 22.1674792867087795   T   T   T
  4.9461518050419837  4.0580461081332126 16.2779474142289686   F   F   F
  3.3842091297655692  4.9598341321628148 19.1427250342289632   F   F   F
  3.3842091297655692  4.9598341321628148 13.4131697942289705   F   F   F
  4.9461518050419837  5.8616221561924178 18.0993840257710268   F   F   F
  6.5162291389014033  6.7587216423018468 20.1523053224050521   T   T   T
  6.5080944803184000  6.7634101802220190 12.3698287857710305   F   F   F
  4.9461518050419846  5.8616221561924178 14.4565108026869051   F   F   F
  5.0599575789428055  5.6224761175062596 22.1761075499634295   T   T   T
  6.5080944803184000  6.7634101802220199 16.2779474142289686   F   F   F
  4.9461518050419855  7.6651982042516220 19.1427250342289632   F   F   F
  4.9461518050419855  7.6651982042516220 13.4131697942289705   F   F   F
  4.9461518050419819  0.4508940120148031 18.0993840257710268   F   F   F
  6.4766681609497780  1.3695311587348797 20.1928660485978320   T   T   T
  6.5080944803183982  1.3526820360444050 12.3698287857710305   F   F   F
  4.9461518050419819  0.4508940120148033 14.4565108026869051   F   F   F
  4.8262992393182778  0.3034166945679753 22.1351990110633174   T   T   T
  6.5080944803183982  1.3526820360444056 16.2779474142289686   F   F   F
  4.9461518050419837  2.2544700600740080 19.1427250342289632   F   F   F
  4.9461518050419837  2.2544700600740075 13.4131697942289705   F   F   F
  6.5080944803183982  3.1562580841036105 18.0993840257710268   F   F   F
  8.0747940989502744  4.0623011763815260 20.1728872469070915   T   T   T
  8.0700371555948145  4.0580461081332118 12.3698287857710305   F   F   F
  6.5080944803183982  3.1562580841036105 14.4565108026869051   F   F   F
  6.5636115355290556  3.3323323490239272 22.1324345949796530   T   T   T
  8.0700371555948145  4.0580461081332126 16.2779474142289686   F   F   F
  6.5080944803184000  4.9598341321628148 19.1427250342289632   F   F   F
  6.5080944803184000  4.9598341321628148 13.4131697942289705   F   F   F
  8.0700371555948145  5.8616221561924178 18.0993840257710268   F   F   F
  9.6320127781026059  6.7571481652709586 20.1696903929955873   T   T   T
  9.6319798308712308  6.7634101802220190 12.3698287857710305   F   F   F
  8.0700371555948145  5.8616221561924178 14.4565108026869051   F   F   F
  7.8903290832639463  5.9701824976033180 22.1959614179103788   T   T   T
  9.6319798308712308  6.7634101802220199 16.2779474142289686   F   F   F
  8.0700371555948163  7.6651982042516220 19.1427250342289632   F   F   F
  8.0700371555948163  7.6651982042516220 13.4131697942289705   F   F   F
  8.0700371555948127  0.4508940120148031 18.0993840257710268   F   F   F
  9.6546948587350254  1.3599150629375245 20.1896171543599188   T   T   T
  9.6319798308712290  1.3526820360444050 12.3698287857710305   F   F   F
  8.0700371555948127  0.4508940120148033 14.4565108026869051   F   F   F
  8.0613216709251478  0.4555502201991184 21.9146745306606441   T   T   T
  9.6319798308712290  1.3526820360444056 16.2779474142289686   F   F   F
  8.0700371555948145  2.2544700600740080 19.1427250342289632   F   F   F
  8.0700371555948145  2.2544700600740075 13.4131697942289705   F   F   F
  9.6319798308712290  3.1562580841036105 18.0993840257710268   F   F   F
 11.1846060792075139  4.0654513353598407 20.1528011360756203   T   T   T
 11.1939225061476453  4.0580461081332118 12.3698287857710305   F   F   F
  9.6319798308712290  3.1562580841036105 14.4565108026869051   F   F   F
  9.7054384206883935  3.1368898332638491 22.1133795141940332   T   T   T
 11.1939225061476453  4.0580461081332126 16.2779474142289686   F   F   F
  9.6319798308712308  4.9598341321628148 19.1427250342289632   F   F   F
  9.6319798308712308  4.9598341321628148 13.4131697942289705   F   F   F
 11.1939225061476453  5.8616221561924178 18.0993840257710268   F   F   F
 12.7593141680797739  6.7410887338343706 20.1936335171017411   T   T   T
 12.7558651814240616  6.7634101802220190 12.3698287857710305   F   F   F
 11.1939225061476453  5.8616221561924178 14.4565108026869051   F   F   F
 11.2420941680291424  5.8110560195300351 22.1095052636628076   T   T   T
 12.7558651814240616  6.7634101802220199 16.2779474142289686   F   F   F
 11.1939225061476471  7.6651982042516220 19.1427250342289632   F   F   F
 11.1939225061476471  7.6651982042516220 13.4131697942289705   F   F   F
  7.4916315503031221  1.0169994090392747 24.0841742112770483   T   T   T
  8.1334440299112920  0.3591483559191776 23.7405093363389632   T   T   T
