Ag Au O                                 
   1.00000000000000     
    11.8860601004442117    0.0000000000000000    0.0000000000000007
    -5.9430300502221050   10.2936299978933050    0.0000000000000007
     0.0000000000000000    0.0000000000000000   34.0989863200000016
   Ag   Au   O 
    48    16     1
Selective dynamics
Direct
  0.4168256549999967  0.3336513100000005  0.3928571428571459   F   F   F
  0.1663486899999995  0.0831743450000033  0.3928571428571459   F   F   F
  0.4168256549999967  0.0831743450000033  0.3928571428571459   F   F   F
  0.0831743450000033  0.1663486899999995  0.4642857142857153   F   F   F
  0.3336513100000005  0.4168256549999967  0.4642857142857153   F   F   F
  0.0831743450000033  0.4168256549999967  0.4642857142857153   F   F   F
  0.3333333333333357  0.1666666666666643  0.4642857142857153   F   F   F
  0.1666666666666643  0.3333333333333357  0.3928571428571459   F   F   F
  0.4168256549999967  0.3336513100000005  0.5357142857142847   F   F   F
  0.1663486899999995  0.0831743450000033  0.5357142857142847   F   F   F
  0.4168256549999967  0.0831743450000033  0.5357142857142847   F   F   F
  0.0854371619789873  0.1695330846291228  0.6067109722001902   T   T   T
  0.3319397947170373  0.4159166570788315  0.6066973544583405   T   T   T
  0.0835866386397583  0.4176815730728478  0.6075313113293603   T   T   T
  0.3340071280880608  0.1668943423265219  0.6070938246368627   T   T   T
  0.1666666666666643  0.3333333333333357  0.5357142857142847   F   F   F
  0.4168256549999967  0.8336513100000005  0.3928571428571459   F   F   F
  0.1663486899999995  0.5831743450000033  0.3928571428571459   F   F   F
  0.4168256549999967  0.5831743450000033  0.3928571428571459   F   F   F
  0.0831743450000033  0.6663486899999995  0.4642857142857153   F   F   F
  0.3336513100000005  0.9168256549999967  0.4642857142857153   F   F   F
  0.0831743450000033  0.9168256549999967  0.4642857142857153   F   F   F
  0.3333333333333357  0.6666666666666643  0.4642857142857153   F   F   F
  0.1666666666666643  0.8333333333333357  0.3928571428571459   F   F   F
  0.4168256549999967  0.8336513100000005  0.5357142857142847   F   F   F
  0.1663486899999995  0.5831743450000033  0.5357142857142847   F   F   F
  0.4168256549999967  0.5831743450000033  0.5357142857142847   F   F   F
  0.0862858902625518  0.6661441249343696  0.6067333419233947   T   T   T
  0.3332650708860427  0.9171866659054260  0.6073010863734680   T   T   T
  0.0863634346714264  0.9202758902924799  0.6062077602598350   T   T   T
  0.3291980421749798  0.6665589757047456  0.6065615030971827   T   T   T
  0.1666666666666643  0.8333333333333357  0.5357142857142847   F   F   F
  0.9168256549999967  0.3336513100000005  0.3928571428571459   F   F   F
  0.6663486899999995  0.0831743450000033  0.3928571428571459   F   F   F
  0.9168256549999967  0.0831743450000033  0.3928571428571459   F   F   F
  0.5831743450000033  0.1663486899999995  0.4642857142857153   F   F   F
  0.8336513100000005  0.4168256549999967  0.4642857142857153   F   F   F
  0.5831743450000033  0.4168256549999967  0.4642857142857153   F   F   F
  0.8333333333333357  0.1666666666666643  0.4642857142857153   F   F   F
  0.6666666666666643  0.3333333333333357  0.3928571428571459   F   F   F
  0.9168256549999967  0.3336513100000005  0.5357142857142847   F   F   F
  0.6663486899999995  0.0831743450000033  0.5357142857142847   F   F   F
  0.9168256549999967  0.0831743450000033  0.5357142857142847   F   F   F
  0.5828337814985716  0.1672021817925113  0.6072537551659209   T   T   T
  0.8344999223783063  0.4148018744983091  0.6067123571671900   T   T   T
  0.5808062576697210  0.4145991214565186  0.6061953849105066   T   T   T
  0.8342520655940859  0.1716920587886861  0.6065591946166364   T   T   T
  0.6666666666666643  0.3333333333333357  0.5357142857142847   F   F   F
  0.9168256549999967  0.8336513100000005  0.3928571428571459   F   F   F
  0.6663486899999995  0.5831743450000033  0.3928571428571459   F   F   F
  0.9168256549999967  0.5831743450000033  0.3928571428571459   F   F   F
  0.5831743450000033  0.6663486899999995  0.4642857142857153   F   F   F
  0.8336513100000005  0.9168256549999967  0.4642857142857153   F   F   F
  0.5831743450000033  0.9168256549999967  0.4642857142857153   F   F   F
  0.8333333333333357  0.6666666666666643  0.4642857142857153   F   F   F
  0.6666666666666643  0.8333333333333357  0.3928571428571459   F   F   F
  0.9168256549999967  0.8336513100000005  0.5357142857142847   F   F   F
  0.6663486899999995  0.5831743450000033  0.5357142857142847   F   F   F
  0.9168256549999967  0.5831743450000033  0.5357142857142847   F   F   F
  0.5693428307111930  0.6640405781787422  0.6093246096809253   T   T   T
  0.8372977837828941  0.9322968496088535  0.6089726559913160   T   T   T
  0.5812162305026618  0.9198156531567889  0.6061344592285067   T   T   T
  0.8425736162982744  0.6587114895695905  0.6086375523086289   T   T   T
  0.6666666666666643  0.8333333333333357  0.5357142857142847   F   F   F
  0.7561932217987817  0.7466515035149897  0.6406756718693742   T   T   T
 
  0.00000000E+00  0.00000000E+00  0.00000000E+00
  0.00000000E+00  0.00000000E+00  0.00000000E+00
  0.00000000E+00  0.00000000E+00  0.00000000E+00
  0.00000000E+00  0.00000000E+00  0.00000000E+00
  0.00000000E+00  0.00000000E+00  0.00000000E+00
  0.00000000E+00  0.00000000E+00  0.00000000E+00
  0.00000000E+00  0.00000000E+00  0.00000000E+00
  0.00000000E+00  0.00000000E+00  0.00000000E+00
  0.00000000E+00  0.00000000E+00  0.00000000E+00
  0.00000000E+00  0.00000000E+00  0.00000000E+00
  0.00000000E+00  0.00000000E+00  0.00000000E+00
  0.00000000E+00  0.00000000E+00  0.00000000E+00
  0.00000000E+00  0.00000000E+00  0.00000000E+00
  0.00000000E+00  0.00000000E+00  0.00000000E+00
  0.00000000E+00  0.00000000E+00  0.00000000E+00
  0.00000000E+00  0.00000000E+00  0.00000000E+00
  0.00000000E+00  0.00000000E+00  0.00000000E+00
  0.00000000E+00  0.00000000E+00  0.00000000E+00
  0.00000000E+00  0.00000000E+00  0.00000000E+00
  0.00000000E+00  0.00000000E+00  0.00000000E+00
  0.00000000E+00  0.00000000E+00  0.00000000E+00
  0.00000000E+00  0.00000000E+00  0.00000000E+00
  0.00000000E+00  0.00000000E+00  0.00000000E+00
  0.00000000E+00  0.00000000E+00  0.00000000E+00
  0.00000000E+00  0.00000000E+00  0.00000000E+00
  0.00000000E+00  0.00000000E+00  0.00000000E+00
  0.00000000E+00  0.00000000E+00  0.00000000E+00
  0.00000000E+00  0.00000000E+00  0.00000000E+00
  0.00000000E+00  0.00000000E+00  0.00000000E+00
  0.00000000E+00  0.00000000E+00  0.00000000E+00
  0.00000000E+00  0.00000000E+00  0.00000000E+00
  0.00000000E+00  0.00000000E+00  0.00000000E+00
  0.00000000E+00  0.00000000E+00  0.00000000E+00
  0.00000000E+00  0.00000000E+00  0.00000000E+00
  0.00000000E+00  0.00000000E+00  0.00000000E+00
  0.00000000E+00  0.00000000E+00  0.00000000E+00
  0.00000000E+00  0.00000000E+00  0.00000000E+00
  0.00000000E+00  0.00000000E+00  0.00000000E+00
  0.00000000E+00  0.00000000E+00  0.00000000E+00
  0.00000000E+00  0.00000000E+00  0.00000000E+00
  0.00000000E+00  0.00000000E+00  0.00000000E+00
  0.00000000E+00  0.00000000E+00  0.00000000E+00
  0.00000000E+00  0.00000000E+00  0.00000000E+00
  0.00000000E+00  0.00000000E+00  0.00000000E+00
  0.00000000E+00  0.00000000E+00  0.00000000E+00
  0.00000000E+00  0.00000000E+00  0.00000000E+00
  0.00000000E+00  0.00000000E+00  0.00000000E+00
  0.00000000E+00  0.00000000E+00  0.00000000E+00
  0.00000000E+00  0.00000000E+00  0.00000000E+00
  0.00000000E+00  0.00000000E+00  0.00000000E+00
  0.00000000E+00  0.00000000E+00  0.00000000E+00
  0.00000000E+00  0.00000000E+00  0.00000000E+00
  0.00000000E+00  0.00000000E+00  0.00000000E+00
  0.00000000E+00  0.00000000E+00  0.00000000E+00
  0.00000000E+00  0.00000000E+00  0.00000000E+00
  0.00000000E+00  0.00000000E+00  0.00000000E+00
  0.00000000E+00  0.00000000E+00  0.00000000E+00
  0.00000000E+00  0.00000000E+00  0.00000000E+00
  0.00000000E+00  0.00000000E+00  0.00000000E+00
  0.00000000E+00  0.00000000E+00  0.00000000E+00
  0.00000000E+00  0.00000000E+00  0.00000000E+00
  0.00000000E+00  0.00000000E+00  0.00000000E+00
  0.00000000E+00  0.00000000E+00  0.00000000E+00
  0.00000000E+00  0.00000000E+00  0.00000000E+00
  0.00000000E+00  0.00000000E+00  0.00000000E+00
