Ag Au O
 1.0000000000000000
    11.8860601004442117    0.0000000000000000    0.0000000000000007
    -5.9430300502221050   10.2936299978933050    0.0000000000000007
     0.0000000000000000    0.0000000000000000   34.0989863200000016
Ag Au O
48 16 1
Selective dynamics
Cartesian
  2.9715150251110534  3.4344831334523986 13.3960303400000029   F   F   F
  1.4829228952276221  0.8561659327471268 13.3960303400000029   F   F   F
  4.4601071549944837  0.8561659327471268 13.3960303400000029   F   F   F
  0.0000000000000001  1.7123318654942536 15.8316722200000033   F   F   F
  1.4885921298834313  4.2906490661995260 15.8316722200000033   F   F   F
 -1.4885921298834306  4.2906490661995260 15.8316722200000033   F   F   F
  2.9715150251110529  1.7156049996488845 15.8316722200000033   F   F   F
 -0.0000000000000004  3.4312099992977689 13.3960303400000029   F   F   F
  2.9715150251110534  3.4344831334523986 18.2673141000000037   F   F   F
  1.4829228952276221  0.8561659327471268 18.2673141000000037   F   F   F
  4.4601071549944837  0.8561659327471268 18.2673141000000037   F   F   F
  0.0079710256359250  1.7451108455737099 20.6882291412481898   T   T   T
  1.4736511583284249  4.2812921779301316 20.6877647900552581   T   T   T
 -1.4887783297296424  4.2994595701498977 20.7162018739915545   T   T   T
  2.9781707067729215  1.7179486086509383 20.7012840212488989   T   T   T
 -0.0000000000000004  3.4312099992977689 18.2673141000000037   F   F   F
  0.0000000000000009  8.5812981323990520 13.3960303400000029   F   F   F
 -1.4885921298834304  6.0029809316937790 13.3960303400000029   F   F   F
  1.4885921298834313  6.0029809316937790 13.3960303400000029   F   F   F
 -2.9715150251110525  6.8591468644409064 15.8316722200000033   F   F   F
 -1.4829228952276212  9.4374640651461785 15.8316722200000033   F   F   F
 -4.4601071549944828  9.4374640651461785 15.8316722200000033   F   F   F
  0.0000000000000004  6.8624199985955370 15.8316722200000033   F   F   F
 -2.9715150251110529  8.5780249982444214 13.3960303400000029   F   F   F
  0.0000000000000009  8.5812981323990520 18.2673141000000037   F   F   F
 -1.4885921298834304  6.0029809316937790 18.2673141000000037   F   F   F
  1.4885921298834313  6.0029809316937790 18.2673141000000037   F   F   F
 -2.9333152747828488  6.8570411473447779 20.6889919261335997   T   T   T
 -1.4896592552086263  9.4411801778318303 20.7083514363700267   T   T   T
 -4.4427062955177172  9.4729795106526407 20.6710701241778914   T   T   T
 -0.0485123086182280  6.8613114676794380 20.6831323963494249   T   T   T
 -2.9715150251110529  8.5780249982444214 18.2673141000000037   F   F   F
  8.9145450753331588  3.4344831334523986 13.3960303400000029   F   F   F
  7.4259529454497279  0.8561659327471268 13.3960303400000029   F   F   F
 10.4031372052165896  0.8561659327471268 13.3960303400000029   F   F   F
  5.9430300502221058  1.7123318654942536 15.8316722200000033   F   F   F
  7.4316221801055367  4.2906490661995260 15.8316722200000033   F   F   F
  4.4544379203386750  4.2906490661995260 15.8316722200000033   F   F   F
  8.9145450753331588  1.7156049996488845 15.8316722200000033   F   F   F
  5.9430300502221058  3.4312099992977689 13.3960303400000029   F   F   F
  8.9145450753331588  3.4344831334523986 18.2673141000000037   F   F   F
  7.4259529454497279  0.8561659327471268 18.2673141000000037   F   F   F
 10.4031372052165896  0.8561659327471268 18.2673141000000037   F   F   F
  5.9339097646055876  1.7211173942126166 20.7067374901713954   T   T   T
  7.4537362261726816  4.2698170185182018 20.6882763672189647   T   T   T
  4.4395230477645935  4.2677299537250430 20.6706481373104687   T   T   T
  8.8955991258054254  1.7673345267472440 20.6830536795029509   T   T   T
  5.9430300502221058  3.4312099992977689 18.2673141000000037   F   F   F
  5.9430300502221067  8.5812981323990520 13.3960303400000029   F   F   F
  4.4544379203386750  6.0029809316937790 13.3960303400000029   F   F   F
  7.4316221801055367  6.0029809316937790 13.3960303400000029   F   F   F
  2.9715150251110534  6.8591468644409064 15.8316722200000033   F   F   F
  4.4601071549944846  9.4374640651461785 15.8316722200000033   F   F   F
  1.4829228952276228  9.4374640651461785 15.8316722200000033   F   F   F
  5.9430300502221058  6.8624199985955370 15.8316722200000033   F   F   F
  2.9715150251110529  8.5780249982444214 13.3960303400000029   F   F   F
  5.9430300502221067  8.5812981323990520 18.2673141000000037   F   F   F
  4.4544379203386750  6.0029809316937790 18.2673141000000037   F   F   F
  7.4316221801055367  6.0029809316937790 18.2673141000000037   F   F   F
  2.8208299929071434  6.8353880153591193 20.7773515299492608   T   T   T
  4.4115035870594239  9.5967188180751517 20.7653502659019757   T   T   T
  1.4418789797328120  9.4682419998665690 20.6685706333134256   T   T   T
  6.1001384654313284  6.7805323489904863 20.7539235700102616   T   T   T
  2.9715150251110529  8.5780249982444214 18.2673141000000037   F   F   F
  4.5507857594157448  7.6857543145540177 21.8463909706306438   T   T   T
