S Tl                                    
   1.00000000000000     
    14.8947738067976587    0.0000000000000000   -0.0000000000000009
     7.4473869033988347   12.8992525003098208   -0.0000000000000007
     0.0000000000000000    0.0000000000000072   58.6178809361686746
   S    Tl
    36    72
Selective dynamics
Direct
  0.0078491869214190  0.4928568952240724  0.6151744739449896   T   T   T
  0.0078566808333349  0.4928600866666670  0.3937565312962974   F   F   F
  0.3411900141666635  0.3261934200000027  0.6029102268518542   F   F   F
  0.1745436974995513  0.1595177215611940  0.6135733327752604   T   T   T
  0.0078566808333349  0.4928600866666670  0.5048676424074046   F   F   F
  0.3411900141666635  0.3261934200000027  0.4917991157407400   F   F   F
  0.1745233474999992  0.1595267533333313  0.5031386090740710   F   F   F
  0.3411900141666635  0.3261934200000027  0.3806880046296328   F   F   F
  0.1745233474999992  0.1595267533333313  0.3920274979629639   F   F   F
  0.1576562741666692  0.0071399133333330  0.5822516861111140   F   F   F
  0.0221365075000008  0.3287806666666668  0.3600294638888855   F   F   F
  0.3391208222168700  0.4784227919812523  0.6390701297523762   T   T   T
  0.1576562741666692  0.0071399133333330  0.3600294638888855   F   F   F
  0.0221365075000008  0.3287806666666668  0.5822516861111140   F   F   F
  0.4934029143549878  0.1760524064111948  0.6390737914006905   T   T   T
  0.4921433191666651  0.1771893983333328  0.4177483138888860   F   F   F
  0.3392407308333318  0.4771467249999972  0.4177483138888860   F   F   F
  0.1910282793710820  0.3241286461847750  0.6390730921373944   T   T   T
  0.3437772608333347  0.1426596800000013  0.5822516861111140   F   F   F
  0.3437772608333347  0.1426596800000013  0.3600294638888855   F   F   F
  0.1921859925000007  0.3242441366666640  0.4177483138888860   F   F   F
  0.1576562741666692  0.0071399133333330  0.4711405749999997   F   F   F
  0.3392407308333318  0.4771467249999972  0.5288594250000003   F   F   F
  0.0221365075000008  0.3287806666666668  0.4711405749999997   F   F   F
  0.4921433191666651  0.1771893983333328  0.5288594250000003   F   F   F
  0.1921859925000007  0.3242441366666640  0.5288594250000003   F   F   F
  0.3437772608333347  0.1426596800000013  0.4711405749999997   F   F   F
  0.0078510447765439  0.9928840652982771  0.6151850008672284   T   T   T
  0.0078566808333349  0.9928600866666670  0.3937565312962974   F   F   F
  0.3411900141666635  0.8261934200000027  0.6029102268518542   F   F   F
  0.1745634621010410  0.6594921203158961  0.6135628490476108   T   T   T
  0.0078566808333349  0.9928600866666670  0.5048676424074046   F   F   F
  0.3411900141666635  0.8261934200000027  0.4917991157407400   F   F   F
  0.1745233474999992  0.6595267533333313  0.5031386090740710   F   F   F
  0.3411900141666635  0.8261934200000027  0.3806880046296328   F   F   F
  0.1745233474999992  0.6595267533333313  0.3920274979629639   F   F   F
  0.1576562741666692  0.5071399133333330  0.5822516861111140   F   F   F
  0.0221365075000008  0.8287806666666668  0.3600294638888855   F   F   F
  0.3391223648528623  0.9784192610573044  0.6390758820176359   T   T   T
  0.1576562741666692  0.5071399133333330  0.3600294638888855   F   F   F
  0.0221365075000008  0.8287806666666668  0.5822516861111140   F   F   F
  0.4933958114320731  0.6760524486564989  0.6390695869425969   T   T   T
  0.4921433191666651  0.6771893983333328  0.4177483138888860   F   F   F
  0.3392407308333318  0.9771467249999972  0.4177483138888860   F   F   F
  0.1910562937968692  0.8241149448792626  0.6390751637175001   T   T   T
  0.3437772608333347  0.6426596800000013  0.5822516861111140   F   F   F
  0.3437772608333347  0.6426596800000013  0.3600294638888855   F   F   F
  0.1921859925000007  0.8242441366666640  0.4177483138888860   F   F   F
  0.1576562741666692  0.5071399133333330  0.4711405749999997   F   F   F
  0.3392407308333318  0.9771467249999972  0.5288594250000003   F   F   F
  0.0221365075000008  0.8287806666666668  0.4711405749999997   F   F   F
  0.4921433191666651  0.6771893983333328  0.5288594250000003   F   F   F
  0.1921859925000007  0.8242441366666640  0.5288594250000003   F   F   F
  0.3437772608333347  0.6426596800000013  0.4711405749999997   F   F   F
  0.5078439025193475  0.4928391030450996  0.6151646627933332   T   T   T
  0.5078566808333349  0.4928600866666670  0.3937565312962974   F   F   F
  0.8411900141666706  0.3261934200000027  0.6029102268518542   F   F   F
  0.6744861392886463  0.1595520055950459  0.6135673986591001   T   T   T
  0.5078566808333349  0.4928600866666670  0.5048676424074046   F   F   F
  0.8411900141666635  0.3261934200000027  0.4917991157407400   F   F   F
  0.6745233474999992  0.1595267533333313  0.5031386090740710   F   F   F
  0.8411900141666635  0.3261934200000027  0.3806880046296328   F   F   F
  0.6745233474999992  0.1595267533333313  0.3920274979629639   F   F   F
  0.6576562741666692  0.0071399133333330  0.5822516861111140   F   F   F
  0.5221365075000008  0.3287806666666668  0.3600294638888855   F   F   F
  0.8391179778064313  0.4783892301887747  0.6390799338932212   T   T   T
  0.6576562741666692  0.0071399133333330  0.3600294638888855   F   F   F
  0.5221365075000008  0.3287806666666668  0.5822516861111140   F   F   F
  0.9933947223769195  0.1760607055306664  0.6390797775136505   T   T   T
  0.9921433191666651  0.1771893983333328  0.4177483138888860   F   F   F
  0.8392407308333318  0.4771467249999972  0.4177483138888860   F   F   F
  0.6910504201912389  0.3241279557904164  0.6390773806780388   T   T   T
  0.8437772608333347  0.1426596800000013  0.5822516861111140   F   F   F
  0.8437772608333347  0.1426596800000013  0.3600294638888855   F   F   F
  0.6921859925000007  0.3242441366666640  0.4177483138888860   F   F   F
  0.6576562741666692  0.0071399133333330  0.4711405749999997   F   F   F
  0.8392407308333318  0.4771467249999972  0.5288594250000003   F   F   F
  0.5221365075000008  0.3287806666666668  0.4711405749999997   F   F   F
  0.9921433191666651  0.1771893983333328  0.5288594250000003   F   F   F
  0.6921859925000007  0.3242441366666640  0.5288594250000003   F   F   F
  0.8437772608333347  0.1426596800000013  0.4711405749999997   F   F   F
  0.5078516726516256  0.9928655377927029  0.6151762786274375   T   T   T
  0.5078566808333349  0.9928600866666670  0.3937565312962974   F   F   F
  0.8411900141666635  0.8261934200000027  0.6029102268518542   F   F   F
  0.6745045293186251  0.6595278974337901  0.6135587098685846   T   T   T
  0.5078566808333349  0.9928600866666670  0.5048676424074046   F   F   F
  0.8411900141666635  0.8261934200000027  0.4917991157407400   F   F   F
  0.6745233474999992  0.6595267533333313  0.5031386090740710   F   F   F
  0.8411900141666635  0.8261934200000027  0.3806880046296328   F   F   F
  0.6745233474999992  0.6595267533333313  0.3920274979629639   F   F   F
  0.6576562741666692  0.5071399133333330  0.5822516861111140   F   F   F
  0.5221365075000008  0.8287806666666668  0.3600294638888855   F   F   F
  0.8391235473856113  0.9783845206087065  0.6390853609238931   T   T   T
  0.6576562741666692  0.5071399133333330  0.3600294638888855   F   F   F
  0.5221365075000008  0.8287806666666668  0.5822516861111140   F   F   F
  0.9933853542162936  0.6760624519578613  0.6390754662304090   T   T   T
  0.9921433191666651  0.6771893983333328  0.4177483138888860   F   F   F
  0.8392407308333318  0.9771467249999972  0.4177483138888860   F   F   F
  0.6910773751986241  0.8241132336677737  0.6390790212055038   T   T   T
  0.8437772608333347  0.6426596800000013  0.5822516861111140   F   F   F
  0.8437772608333347  0.6426596800000013  0.3600294638888855   F   F   F
  0.6921859925000007  0.8242441366666640  0.4177483138888860   F   F   F
  0.6576562741666692  0.5071399133333330  0.4711405749999997   F   F   F
  0.8392407308333318  0.9771467249999972  0.5288594250000003   F   F   F
  0.5221365075000008  0.8287806666666668  0.4711405749999997   F   F   F
  0.9921433191666651  0.6771893983333328  0.5288594250000003   F   F   F
  0.6921859925000007  0.8242441366666640  0.5288594250000003   F   F   F
  0.8437772608333347  0.6426596800000013  0.4711405749999997   F   F   F
 
  0.00000000E+00  0.00000000E+00  0.00000000E+00
  0.00000000E+00  0.00000000E+00  0.00000000E+00
  0.00000000E+00  0.00000000E+00  0.00000000E+00
  0.00000000E+00  0.00000000E+00  0.00000000E+00
  0.00000000E+00  0.00000000E+00  0.00000000E+00
  0.00000000E+00  0.00000000E+00  0.00000000E+00
  0.00000000E+00  0.00000000E+00  0.00000000E+00
  0.00000000E+00  0.00000000E+00  0.00000000E+00
  0.00000000E+00  0.00000000E+00  0.00000000E+00
  0.00000000E+00  0.00000000E+00  0.00000000E+00
  0.00000000E+00  0.00000000E+00  0.00000000E+00
  0.00000000E+00  0.00000000E+00  0.00000000E+00
  0.00000000E+00  0.00000000E+00  0.00000000E+00
  0.00000000E+00  0.00000000E+00  0.00000000E+00
  0.00000000E+00  0.00000000E+00  0.00000000E+00
  0.00000000E+00  0.00000000E+00  0.00000000E+00
  0.00000000E+00  0.00000000E+00  0.00000000E+00
  0.00000000E+00  0.00000000E+00  0.00000000E+00
  0.00000000E+00  0.00000000E+00  0.00000000E+00
  0.00000000E+00  0.00000000E+00  0.00000000E+00
  0.00000000E+00  0.00000000E+00  0.00000000E+00
  0.00000000E+00  0.00000000E+00  0.00000000E+00
  0.00000000E+00  0.00000000E+00  0.00000000E+00
  0.00000000E+00  0.00000000E+00  0.00000000E+00
  0.00000000E+00  0.00000000E+00  0.00000000E+00
  0.00000000E+00  0.00000000E+00  0.00000000E+00
  0.00000000E+00  0.00000000E+00  0.00000000E+00
  0.00000000E+00  0.00000000E+00  0.00000000E+00
  0.00000000E+00  0.00000000E+00  0.00000000E+00
  0.00000000E+00  0.00000000E+00  0.00000000E+00
  0.00000000E+00  0.00000000E+00  0.00000000E+00
  0.00000000E+00  0.00000000E+00  0.00000000E+00
  0.00000000E+00  0.00000000E+00  0.00000000E+00
  0.00000000E+00  0.00000000E+00  0.00000000E+00
  0.00000000E+00  0.00000000E+00  0.00000000E+00
  0.00000000E+00  0.00000000E+00  0.00000000E+00
  0.00000000E+00  0.00000000E+00  0.00000000E+00
  0.00000000E+00  0.00000000E+00  0.00000000E+00
  0.00000000E+00  0.00000000E+00  0.00000000E+00
  0.00000000E+00  0.00000000E+00  0.00000000E+00
  0.00000000E+00  0.00000000E+00  0.00000000E+00
  0.00000000E+00  0.00000000E+00  0.00000000E+00
  0.00000000E+00  0.00000000E+00  0.00000000E+00
  0.00000000E+00  0.00000000E+00  0.00000000E+00
  0.00000000E+00  0.00000000E+00  0.00000000E+00
  0.00000000E+00  0.00000000E+00  0.00000000E+00
  0.00000000E+00  0.00000000E+00  0.00000000E+00
  0.00000000E+00  0.00000000E+00  0.00000000E+00
  0.00000000E+00  0.00000000E+00  0.00000000E+00
  0.00000000E+00  0.00000000E+00  0.00000000E+00
  0.00000000E+00  0.00000000E+00  0.00000000E+00
  0.00000000E+00  0.00000000E+00  0.00000000E+00
  0.00000000E+00  0.00000000E+00  0.00000000E+00
  0.00000000E+00  0.00000000E+00  0.00000000E+00
  0.00000000E+00  0.00000000E+00  0.00000000E+00
  0.00000000E+00  0.00000000E+00  0.00000000E+00
  0.00000000E+00  0.00000000E+00  0.00000000E+00
  0.00000000E+00  0.00000000E+00  0.00000000E+00
  0.00000000E+00  0.00000000E+00  0.00000000E+00
  0.00000000E+00  0.00000000E+00  0.00000000E+00
  0.00000000E+00  0.00000000E+00  0.00000000E+00
  0.00000000E+00  0.00000000E+00  0.00000000E+00
  0.00000000E+00  0.00000000E+00  0.00000000E+00
  0.00000000E+00  0.00000000E+00  0.00000000E+00
  0.00000000E+00  0.00000000E+00  0.00000000E+00
  0.00000000E+00  0.00000000E+00  0.00000000E+00
  0.00000000E+00  0.00000000E+00  0.00000000E+00
  0.00000000E+00  0.00000000E+00  0.00000000E+00
  0.00000000E+00  0.00000000E+00  0.00000000E+00
  0.00000000E+00  0.00000000E+00  0.00000000E+00
  0.00000000E+00  0.00000000E+00  0.00000000E+00
  0.00000000E+00  0.00000000E+00  0.00000000E+00
  0.00000000E+00  0.00000000E+00  0.00000000E+00
  0.00000000E+00  0.00000000E+00  0.00000000E+00
  0.00000000E+00  0.00000000E+00  0.00000000E+00
  0.00000000E+00  0.00000000E+00  0.00000000E+00
  0.00000000E+00  0.00000000E+00  0.00000000E+00
  0.00000000E+00  0.00000000E+00  0.00000000E+00
  0.00000000E+00  0.00000000E+00  0.00000000E+00
  0.00000000E+00  0.00000000E+00  0.00000000E+00
  0.00000000E+00  0.00000000E+00  0.00000000E+00
  0.00000000E+00  0.00000000E+00  0.00000000E+00
  0.00000000E+00  0.00000000E+00  0.00000000E+00
  0.00000000E+00  0.00000000E+00  0.00000000E+00
  0.00000000E+00  0.00000000E+00  0.00000000E+00
  0.00000000E+00  0.00000000E+00  0.00000000E+00
  0.00000000E+00  0.00000000E+00  0.00000000E+00
  0.00000000E+00  0.00000000E+00  0.00000000E+00
  0.00000000E+00  0.00000000E+00  0.00000000E+00
  0.00000000E+00  0.00000000E+00  0.00000000E+00
  0.00000000E+00  0.00000000E+00  0.00000000E+00
  0.00000000E+00  0.00000000E+00  0.00000000E+00
  0.00000000E+00  0.00000000E+00  0.00000000E+00
  0.00000000E+00  0.00000000E+00  0.00000000E+00
  0.00000000E+00  0.00000000E+00  0.00000000E+00
  0.00000000E+00  0.00000000E+00  0.00000000E+00
  0.00000000E+00  0.00000000E+00  0.00000000E+00
  0.00000000E+00  0.00000000E+00  0.00000000E+00
  0.00000000E+00  0.00000000E+00  0.00000000E+00
  0.00000000E+00  0.00000000E+00  0.00000000E+00
  0.00000000E+00  0.00000000E+00  0.00000000E+00
  0.00000000E+00  0.00000000E+00  0.00000000E+00
  0.00000000E+00  0.00000000E+00  0.00000000E+00
  0.00000000E+00  0.00000000E+00  0.00000000E+00
  0.00000000E+00  0.00000000E+00  0.00000000E+00
  0.00000000E+00  0.00000000E+00  0.00000000E+00
  0.00000000E+00  0.00000000E+00  0.00000000E+00
  0.00000000E+00  0.00000000E+00  0.00000000E+00
