S Tl
 1.0000000000000000
    14.8947738067976587   -0.0000000000000000   -0.0000000000000009
     7.4473869033988347   12.8992525003098208   -0.0000000000000007
    -0.0000000000000000    0.0000000000000072   58.6178809361686746
S Tl
36 72
Selective dynamics
Cartesian
  3.7874078505033633  6.3574855380140631 36.0602240686774493   T   T   T
  3.7875432385340488  6.3575267052379170 23.0811734693650727   F   F   F
  7.5112366902334688  4.2076512885196156 35.3413198928002998   F   F   F
  3.7877790840728336  2.0576593686919864 35.9663685662286099   T   T   T
  3.7875432385340488  6.3575267052379179 29.5942713511615985   F   F   F
  7.5112366902334671  4.2076512885196120 28.8282220110037848   F   F   F
  3.7875432385340515  2.0577758718013106 29.4929190810935928   F   F   F
  7.5112366902334671  4.2076512885196147 22.3151241292072520   F   F   F
  3.7875432385340506  2.0577758718013106 22.9798211992970671   F   F   F
  2.4014282399850488  0.0920995449169996 34.1303600113445640   F   F   F
  2.7782751031090518  4.2410248365535299 21.1041642477515303   F   F   F
  8.6141275753841953  6.1712963956693505 37.4609367756868323   T   T   T
  2.4014282399850484  0.0920995449169983 21.1041642477515303   F   F   F
  2.7782751031090513  4.2410248365535317 34.1303600113445640   F   F   F
  8.6602551907508438  2.2709444435851354 37.4611514137516224   T   T   T
  8.6499614240829157  2.2856107894796454 24.4875209248241283   F   F   F
  8.6064102225798749  6.1548360854708948 24.4875209248241283   F   F   F
  5.2592344465469276  4.1810172497209646 37.4611104244188482   T   T   T
  6.1829263725080477  1.8402032339334016 34.1303600113445640   F   F   F
  6.1829263725080468  1.8402032339334025 21.1041642477515303   F   F   F
  5.2773384240376107  4.1825069906082994 24.4875209248241283   F   F   F
  2.4014282399850493  0.0920995449169983 27.6172621295480560   F   F   F
  8.6064102225798749  6.1548360854708974 31.0006188066206292   F   F   F
  2.7782751031090518  4.2410248365535308 27.6172621295480560   F   F   F
  8.6499614240829157  2.2856107894796449 31.0006188066206292   F   F   F
  5.2773384240376080  4.1825069906083012 31.0006188066206292   F   F   F
  6.1829263725080468  1.8402032339334031 27.6172621295480560   F   F   F
  7.5113313205894539 12.8074622618166174 36.0608411345518434   T   T   T
  7.5112366902334662 12.8071529553928265 23.0811734693650727   F   F   F
 11.2349301419328853 10.6572775386745260 35.3413198928002998   F   F   F
  7.5115762626618707  8.5069553819194716 35.9657540323292579   T   T   T
  7.5112366902334662 12.8071529553928283 29.5942713511615985   F   F   F
 11.2349301419328853 10.6572775386745224 28.8282220110037848   F   F   F
  7.5112366902334688  8.5074021219562219 29.4929190810935928   F   F   F
 11.2349301419328853 10.6572775386745242 22.3151241292072520   F   F   F
  7.5112366902334680  8.5074021219562219 22.9798211992970671   F   F   F
  6.1251216916844662  6.5417257950719101 34.1303600113445640   F   F   F
  6.5019685548084691 10.6906510867084403 21.1041642477515303   F   F   F
 12.3378177081409959 12.6208770995446820 37.4612739612869063   T   T   T
  6.1251216916844662  6.5417257950719083 21.1041642477515303   F   F   F
  6.5019685548084691 10.6906510867084421 34.1303600113445640   F   F   F
 12.3838431606371806  8.7205712386728909 37.4609049573275570   T   T   T
 12.3736548757823321  8.7352370396345549 24.4875209248241283   F   F   F
 12.3301036742792931 12.6044623356258043 24.4875209248241283   F   F   F
  8.9832431278585148 10.6304667632765604 37.4612318560550648   T   T   T
  9.9066198242074641  8.2898294840883118 34.1303600113445640   F   F   F
  9.9066198242074641  8.2898294840883135 21.1041642477515303   F   F   F
  9.0010318757370271 10.6321332407632099 24.4875209248241283   F   F   F
  6.1251216916844662  6.5417257950719083 27.6172621295480560   F   F   F
 12.3301036742792931 12.6044623356258079 31.0006188066206292   F   F   F
  6.5019685548084691 10.6906510867084421 27.6172621295480560   F   F   F
 12.3736548757823321  8.7352370396345549 31.0006188066206292   F   F   F
  9.0010318757370253 10.6321332407632116 31.0006188066206292   F   F   F
  9.9066198242074641  8.2898294840883135 27.6172621295480560   F   F   F
 11.2345835386879713  6.3572560322049325 36.0596489597581566   T   T   T
 11.2349301419328782  6.3575267052379170 23.0811734693650727   F   F   F
 14.9586235936322982  4.2076512885196156 35.3413198928002998   F   F   F
 11.2345639974041838  2.0581016071013778 35.9660207209140736   T   T   T
 11.2349301419328782  6.3575267052379179 29.5942713511615985   F   F   F
 14.9586235936322964  4.2076512885196120 28.8282220110037848   F   F   F
 11.2349301419328818  2.0577758718013106 29.4929190810935928   F   F   F
 14.9586235936322964  4.2076512885196147 22.3151241292072520   F   F   F
 11.2349301419328800  2.0577758718013106 22.9798211992970671   F   F   F
  9.8488151433838773  0.0920995449169996 34.1303600113445640   F   F   F
 10.2256620065078820  4.2410248365535299 21.1041642477515303   F   F   F
 16.0612221642791297  6.1708634736338075 37.4615114736473060   T   T   T
  9.8488151433838773  0.0920995449169983 21.1041642477515303   F   F   F
 10.2256620065078803  4.2410248365535317 34.1303600113445640   F   F   F
 16.1075818832430073  2.2710514960228054 37.4615023070084590   T   T   T
 16.0973483274817468  2.2856107894796454 24.4875209248241283   F   F   F
 16.0537971259787042  6.1548360854708948 24.4875209248241283   F   F   F
 12.7069459908199249  4.1810083441498431 37.4613618095838774   T   T   T
 13.6303132759068770  1.8402032339334016 34.1303600113445640   F   F   F
 13.6303132759068752  1.8402032339334025 21.1041642477515303   F   F   F
 12.7247253274364400  4.1825069906082994 24.4875209248241283   F   F   F
  9.8488151433838791  0.0920995449169983 27.6172621295480560   F   F   F
 16.0537971259787042  6.1548360854708974 31.0006188066206292   F   F   F
 10.2256620065078820  4.2410248365535308 27.6172621295480560   F   F   F
 16.0973483274817468  2.2856107894796449 31.0006188066206292   F   F   F
 12.7247253274364382  4.1825069906083012 31.0006188066206292   F   F   F
 13.6303132759068752  1.8402032339334031 27.6172621295480560   F   F   F
 14.9585895945432412 12.8072232708439557 36.0603298553386011   T   T   T
 14.9586235936322964 12.8071529553928265 23.0811734693650727   F   F   F
 18.6823170453317147 10.6572775386745260 35.3413198928002998   F   F   F
 14.9583518216360325  8.5074168799969421 35.9655114024258893   T   T   T
 14.9586235936322964 12.8071529553928283 29.5942713511615985   F   F   F
 18.6823170453317147 10.6572775386745224 28.8282220110037848   F   F   F
 14.9586235936323000  8.5074021219562219 29.4929190810935928   F   F   F
 18.6823170453317147 10.6572775386745242 22.3151241292072520   F   F   F
 14.9586235936322982  8.5074021219562219 22.9798211992970671   F   F   F
 13.5725085950832955  6.5417257950719101 34.1303600113445640   F   F   F
 13.9493554582073003 10.6906510867084403 21.1041642477515303   F   F   F
 19.7849634995358201 12.6204289737263160 37.4618295946850139   T   T   T
 13.5725085950832955  6.5417257950719083 21.1041642477515303   F   F   F
 13.9493554582072985 10.6906510867084421 34.1303600113445640   F   F   F
 19.8311488046279791  8.7207002737830397 37.4612495887206478   T   T   T
 19.8210417791811651  8.7352370396345549 24.4875209248241283   F   F   F
 19.7774905776781225 12.6044623356258043 24.4875209248241283   F   F   F
 16.4309312899140352 10.6304446899274598 37.4614579738274642   T   T   T
 17.3540067276062970  8.2898294840883118 34.1303600113445640   F   F   F
 17.3540067276062935  8.2898294840883135 21.1041642477515303   F   F   F
 16.4484187791358565 10.6321332407632099 24.4875209248241283   F   F   F
 13.5725085950832973  6.5417257950719083 27.6172621295480560   F   F   F
 19.7774905776781225 12.6044623356258079 31.0006188066206292   F   F   F
 13.9493554582073003 10.6906510867084421 27.6172621295480560   F   F   F
 19.8210417791811651  8.7352370396345549 31.0006188066206292   F   F   F
 16.4484187791358565 10.6321332407632116 31.0006188066206292   F   F   F
 17.3540067276062935  8.2898294840883135 27.6172621295480560   F   F   F
