Te Au O                                 
   1.00000000000000     
     8.0812559169438369    0.0000000000000000   -2.6885252545588312
     2.6833086782632822   12.0561576738267870   -5.4241366942120299
     0.0000000000000000    0.0000000000000000   40.4691373736655891
   Te   Au   O 
    32    16     1
Selective dynamics
Direct
  0.4275467674999973  0.4057865658333313  0.3786267002777777   F   F   F
  0.1775467674999973  0.1557865658333313  0.4619600336111134   F   F   F
  0.0724532325000027  0.0942134341666687  0.3713732997222223   F   F   F
  0.3224532325000027  0.3442134341666687  0.4547066330555580   F   F   F
  0.0000000000000000  0.0000000000000000  0.4583333333333357   F   F   F
  0.2500000000000000  0.2500000000000000  0.3750000000000000   F   F   F
  0.4275467674999973  0.4057865658333313  0.5452933669444420   F   F   F
  0.2078790937681347  0.1447132764120411  0.6351469529814082   T   T   T
  0.0724532325000027  0.0942134341666687  0.5380399663888866   F   F   F
  0.3035408736217349  0.3558098428637351  0.6212516717832983   T   T   T
  0.0094565404633258  0.0067581374355612  0.6275013843697650   T   T   T
  0.2500000000000000  0.2500000000000000  0.5416666666666643   F   F   F
  0.4275467674999973  0.9057865658333313  0.3786267002777777   F   F   F
  0.1775467674999973  0.6557865658333313  0.4619600336111134   F   F   F
  0.0724532325000027  0.5942134341666687  0.3713732997222223   F   F   F
  0.3224532325000027  0.8442134341666687  0.4547066330555580   F   F   F
  0.0000000000000000  0.5000000000000000  0.4583333333333357   F   F   F
  0.2500000000000000  0.7500000000000000  0.3750000000000000   F   F   F
  0.4275467674999973  0.9057865658333313  0.5452933669444420   F   F   F
  0.2181629116328949  0.6431155364084589  0.6401516407061791   T   T   T
  0.0724532325000027  0.5942134341666687  0.5380399663888866   F   F   F
  0.3121657528338062  0.8636125693097512  0.6239311892539732   T   T   T
  0.9946001476409165  0.4925165112034406  0.6260983755293097   T   T   T
  0.2500000000000000  0.7500000000000000  0.5416666666666643   F   F   F
  0.9275467674999973  0.4057865658333313  0.3786267002777777   F   F   F
  0.6775467674999973  0.1557865658333313  0.4619600336111134   F   F   F
  0.5724532325000027  0.0942134341666687  0.3713732997222223   F   F   F
  0.8224532325000027  0.3442134341666687  0.4547066330555580   F   F   F
  0.5000000000000000  0.0000000000000000  0.4583333333333357   F   F   F
  0.7500000000000000  0.2500000000000000  0.3750000000000000   F   F   F
  0.9275467674999973  0.4057865658333313  0.5452933669444420   F   F   F
  0.7177114026129559  0.1585023441827929  0.6358134249643115   T   T   T
  0.5724532325000027  0.0942134341666687  0.5380399663888866   F   F   F
  0.7992252283147039  0.3362382964704480  0.6210538447955471   T   T   T
  0.5148119788286110  0.0113257796398969  0.6267937373318375   T   T   T
  0.7500000000000000  0.2500000000000000  0.5416666666666643   F   F   F
  0.9275467674999973  0.9057865658333313  0.3786267002777777   F   F   F
  0.6775467674999973  0.6557865658333313  0.4619600336111134   F   F   F
  0.5724532325000027  0.5942134341666687  0.3713732997222223   F   F   F
  0.8224532325000027  0.8442134341666687  0.4547066330555580   F   F   F
  0.5000000000000000  0.5000000000000000  0.4583333333333357   F   F   F
  0.7500000000000000  0.7500000000000000  0.3750000000000000   F   F   F
  0.9275467674999973  0.9057865658333313  0.5452933669444420   F   F   F
  0.6955467842585747  0.6300921920624276  0.6344878671067349   T   T   T
  0.5724532325000027  0.5942134341666687  0.5380399663888866   F   F   F
  0.8190416053964142  0.8634075823498080  0.6213399931992569   T   T   T
  0.5045881958195508  0.4917740216332120  0.6285143651028307   T   T   T
  0.7500000000000000  0.7500000000000000  0.5416666666666643   F   F   F
  0.3145378495460918  0.7825107364770503  0.6560733469886912   T   T   T
 
  0.00000000E+00  0.00000000E+00  0.00000000E+00
  0.00000000E+00  0.00000000E+00  0.00000000E+00
  0.00000000E+00  0.00000000E+00  0.00000000E+00
  0.00000000E+00  0.00000000E+00  0.00000000E+00
  0.00000000E+00  0.00000000E+00  0.00000000E+00
  0.00000000E+00  0.00000000E+00  0.00000000E+00
  0.00000000E+00  0.00000000E+00  0.00000000E+00
  0.00000000E+00  0.00000000E+00  0.00000000E+00
  0.00000000E+00  0.00000000E+00  0.00000000E+00
  0.00000000E+00  0.00000000E+00  0.00000000E+00
  0.00000000E+00  0.00000000E+00  0.00000000E+00
  0.00000000E+00  0.00000000E+00  0.00000000E+00
  0.00000000E+00  0.00000000E+00  0.00000000E+00
  0.00000000E+00  0.00000000E+00  0.00000000E+00
  0.00000000E+00  0.00000000E+00  0.00000000E+00
  0.00000000E+00  0.00000000E+00  0.00000000E+00
  0.00000000E+00  0.00000000E+00  0.00000000E+00
  0.00000000E+00  0.00000000E+00  0.00000000E+00
  0.00000000E+00  0.00000000E+00  0.00000000E+00
  0.00000000E+00  0.00000000E+00  0.00000000E+00
  0.00000000E+00  0.00000000E+00  0.00000000E+00
  0.00000000E+00  0.00000000E+00  0.00000000E+00
  0.00000000E+00  0.00000000E+00  0.00000000E+00
  0.00000000E+00  0.00000000E+00  0.00000000E+00
  0.00000000E+00  0.00000000E+00  0.00000000E+00
  0.00000000E+00  0.00000000E+00  0.00000000E+00
  0.00000000E+00  0.00000000E+00  0.00000000E+00
  0.00000000E+00  0.00000000E+00  0.00000000E+00
  0.00000000E+00  0.00000000E+00  0.00000000E+00
  0.00000000E+00  0.00000000E+00  0.00000000E+00
  0.00000000E+00  0.00000000E+00  0.00000000E+00
  0.00000000E+00  0.00000000E+00  0.00000000E+00
  0.00000000E+00  0.00000000E+00  0.00000000E+00
  0.00000000E+00  0.00000000E+00  0.00000000E+00
  0.00000000E+00  0.00000000E+00  0.00000000E+00
  0.00000000E+00  0.00000000E+00  0.00000000E+00
  0.00000000E+00  0.00000000E+00  0.00000000E+00
  0.00000000E+00  0.00000000E+00  0.00000000E+00
  0.00000000E+00  0.00000000E+00  0.00000000E+00
  0.00000000E+00  0.00000000E+00  0.00000000E+00
  0.00000000E+00  0.00000000E+00  0.00000000E+00
  0.00000000E+00  0.00000000E+00  0.00000000E+00
  0.00000000E+00  0.00000000E+00  0.00000000E+00
  0.00000000E+00  0.00000000E+00  0.00000000E+00
  0.00000000E+00  0.00000000E+00  0.00000000E+00
  0.00000000E+00  0.00000000E+00  0.00000000E+00
  0.00000000E+00  0.00000000E+00  0.00000000E+00
  0.00000000E+00  0.00000000E+00  0.00000000E+00
  0.00000000E+00  0.00000000E+00  0.00000000E+00
