Ag Hg Pd                                
   1.00000000000000     
     9.3252902844487018    0.0000000000000000    0.0000000000000006
    -0.0000000000000008   13.1879519933334119    0.0000000000000008
     0.0000000000000000    0.0000000000000000   37.3011611377948071
   Ag   Hg   Pd
    16    16    32
Selective dynamics
Direct
  0.0000000000000000  0.0000000000000000  0.4687500000000000   F   F   F
  0.0000134288020135  0.9999987602756946  0.5947771961964463   T   T   T
  0.2500000000000000  0.2500000000000000  0.4062500000000000   F   F   F
  0.2500000000000000  0.2500000000000000  0.5312500000000000   F   F   F
  0.9999951215866361  0.2499986818116327  0.5963462127018104   T   T   T
  0.0000000000000000  0.2500000000000000  0.4687500000000000   F   F   F
  0.2500000000000000  0.0000000000000000  0.4062500000000000   F   F   F
  0.2500000000000000  0.0000000000000000  0.5312500000000000   F   F   F
  0.0000000000000000  0.3750000000000000  0.4062500000000000   F   F   F
  0.0000000000000000  0.3750000000000000  0.5312500000000000   F   F   F
  0.2500064761089646  0.3748889762386085  0.5910011285475676   T   T   T
  0.2500000000000000  0.3750000000000000  0.4687500000000000   F   F   F
  0.2500110201217467  0.1251148197881733  0.5910012335927419   T   T   T
  0.2500000000000000  0.1250000000000000  0.4687500000000000   F   F   F
  0.0000000000000000  0.1250000000000000  0.4062500000000000   F   F   F
  0.0000000000000000  0.1250000000000000  0.5312500000000000   F   F   F
  0.0000000000000000  0.5000000000000000  0.4687500000000000   F   F   F
  0.0000183639948048  0.5000129778162758  0.5947776705023315   T   T   T
  0.2500000000000000  0.7500000000000000  0.4062500000000000   F   F   F
  0.2500000000000000  0.7500000000000000  0.5312500000000000   F   F   F
  0.9999952776882779  0.7499968316778478  0.5963464208790086   T   T   T
  0.0000000000000000  0.7500000000000000  0.4687500000000000   F   F   F
  0.2500000000000000  0.5000000000000000  0.4062500000000000   F   F   F
  0.2500000000000000  0.5000000000000000  0.5312500000000000   F   F   F
  0.0000000000000000  0.8750000000000000  0.4062500000000000   F   F   F
  0.0000000000000000  0.8750000000000000  0.5312500000000000   F   F   F
  0.2500022031520501  0.8748877511381608  0.5910009588314793   T   T   T
  0.2500000000000000  0.8750000000000000  0.4687500000000000   F   F   F
  0.2500033306728042  0.6251064085871079  0.5910012934792235   T   T   T
  0.2500000000000000  0.6250000000000000  0.4687500000000000   F   F   F
  0.0000000000000000  0.6250000000000000  0.4062500000000000   F   F   F
  0.0000000000000000  0.6250000000000000  0.5312500000000000   F   F   F
  0.5000000000000000  0.0000000000000000  0.4687500000000000   F   F   F
  0.4999982553550453  0.9999933474002702  0.5947764161179094   T   T   T
  0.7500000000000000  0.2500000000000000  0.4062500000000000   F   F   F
  0.7500000000000000  0.2500000000000000  0.5312500000000000   F   F   F
  0.4999924616746725  0.2499997840496206  0.5963464914719339   T   T   T
  0.5000000000000000  0.2500000000000000  0.4687500000000000   F   F   F
  0.7500000000000000  0.0000000000000000  0.4062500000000000   F   F   F
  0.7500000000000000  0.0000000000000000  0.5312500000000000   F   F   F
  0.5000000000000000  0.3750000000000000  0.4062500000000000   F   F   F
  0.5000000000000000  0.3750000000000000  0.5312500000000000   F   F   F
  0.7500030329284399  0.3748928437030443  0.5910002893331381   T   T   T
  0.7500000000000000  0.3750000000000000  0.4687500000000000   F   F   F
  0.7500018401222235  0.1251161722594389  0.5910052558135206   T   T   T
  0.7500000000000000  0.1250000000000000  0.4687500000000000   F   F   F
  0.5000000000000000  0.1250000000000000  0.4062500000000000   F   F   F
  0.5000000000000000  0.1250000000000000  0.5312500000000000   F   F   F
  0.5000000000000000  0.5000000000000000  0.4687500000000000   F   F   F
  0.5000067322513218  0.5000110607672852  0.5947770767855047   T   T   T
  0.7500000000000000  0.7500000000000000  0.4062500000000000   F   F   F
  0.7500000000000000  0.7500000000000000  0.5312500000000000   F   F   F
  0.4999935893411660  0.7499999039671366  0.5963463993319209   T   T   T
  0.5000000000000000  0.7500000000000000  0.4687500000000000   F   F   F
  0.7500000000000000  0.5000000000000000  0.4062500000000000   F   F   F
  0.7500000000000000  0.5000000000000000  0.5312500000000000   F   F   F
  0.5000000000000000  0.8750000000000000  0.4062500000000000   F   F   F
  0.5000000000000000  0.8750000000000000  0.5312500000000000   F   F   F
  0.7500032276297048  0.8748912546169194  0.5909999702792632   T   T   T
  0.7500000000000000  0.8750000000000000  0.4687500000000000   F   F   F
  0.7499924337987451  0.6251084706297192  0.5910056491430566   T   T   T
  0.7500000000000000  0.6250000000000000  0.4687500000000000   F   F   F
  0.5000000000000000  0.6250000000000000  0.4062500000000000   F   F   F
  0.5000000000000000  0.6250000000000000  0.5312500000000000   F   F   F
 
  0.00000000E+00  0.00000000E+00  0.00000000E+00
  0.00000000E+00  0.00000000E+00  0.00000000E+00
  0.00000000E+00  0.00000000E+00  0.00000000E+00
  0.00000000E+00  0.00000000E+00  0.00000000E+00
  0.00000000E+00  0.00000000E+00  0.00000000E+00
  0.00000000E+00  0.00000000E+00  0.00000000E+00
  0.00000000E+00  0.00000000E+00  0.00000000E+00
  0.00000000E+00  0.00000000E+00  0.00000000E+00
  0.00000000E+00  0.00000000E+00  0.00000000E+00
  0.00000000E+00  0.00000000E+00  0.00000000E+00
  0.00000000E+00  0.00000000E+00  0.00000000E+00
  0.00000000E+00  0.00000000E+00  0.00000000E+00
  0.00000000E+00  0.00000000E+00  0.00000000E+00
  0.00000000E+00  0.00000000E+00  0.00000000E+00
  0.00000000E+00  0.00000000E+00  0.00000000E+00
  0.00000000E+00  0.00000000E+00  0.00000000E+00
  0.00000000E+00  0.00000000E+00  0.00000000E+00
  0.00000000E+00  0.00000000E+00  0.00000000E+00
  0.00000000E+00  0.00000000E+00  0.00000000E+00
  0.00000000E+00  0.00000000E+00  0.00000000E+00
  0.00000000E+00  0.00000000E+00  0.00000000E+00
  0.00000000E+00  0.00000000E+00  0.00000000E+00
  0.00000000E+00  0.00000000E+00  0.00000000E+00
  0.00000000E+00  0.00000000E+00  0.00000000E+00
  0.00000000E+00  0.00000000E+00  0.00000000E+00
  0.00000000E+00  0.00000000E+00  0.00000000E+00
  0.00000000E+00  0.00000000E+00  0.00000000E+00
  0.00000000E+00  0.00000000E+00  0.00000000E+00
  0.00000000E+00  0.00000000E+00  0.00000000E+00
  0.00000000E+00  0.00000000E+00  0.00000000E+00
  0.00000000E+00  0.00000000E+00  0.00000000E+00
  0.00000000E+00  0.00000000E+00  0.00000000E+00
  0.00000000E+00  0.00000000E+00  0.00000000E+00
  0.00000000E+00  0.00000000E+00  0.00000000E+00
  0.00000000E+00  0.00000000E+00  0.00000000E+00
  0.00000000E+00  0.00000000E+00  0.00000000E+00
  0.00000000E+00  0.00000000E+00  0.00000000E+00
  0.00000000E+00  0.00000000E+00  0.00000000E+00
  0.00000000E+00  0.00000000E+00  0.00000000E+00
  0.00000000E+00  0.00000000E+00  0.00000000E+00
  0.00000000E+00  0.00000000E+00  0.00000000E+00
  0.00000000E+00  0.00000000E+00  0.00000000E+00
  0.00000000E+00  0.00000000E+00  0.00000000E+00
  0.00000000E+00  0.00000000E+00  0.00000000E+00
  0.00000000E+00  0.00000000E+00  0.00000000E+00
  0.00000000E+00  0.00000000E+00  0.00000000E+00
  0.00000000E+00  0.00000000E+00  0.00000000E+00
  0.00000000E+00  0.00000000E+00  0.00000000E+00
  0.00000000E+00  0.00000000E+00  0.00000000E+00
  0.00000000E+00  0.00000000E+00  0.00000000E+00
  0.00000000E+00  0.00000000E+00  0.00000000E+00
  0.00000000E+00  0.00000000E+00  0.00000000E+00
  0.00000000E+00  0.00000000E+00  0.00000000E+00
  0.00000000E+00  0.00000000E+00  0.00000000E+00
  0.00000000E+00  0.00000000E+00  0.00000000E+00
  0.00000000E+00  0.00000000E+00  0.00000000E+00
  0.00000000E+00  0.00000000E+00  0.00000000E+00
  0.00000000E+00  0.00000000E+00  0.00000000E+00
  0.00000000E+00  0.00000000E+00  0.00000000E+00
  0.00000000E+00  0.00000000E+00  0.00000000E+00
  0.00000000E+00  0.00000000E+00  0.00000000E+00
  0.00000000E+00  0.00000000E+00  0.00000000E+00
  0.00000000E+00  0.00000000E+00  0.00000000E+00
  0.00000000E+00  0.00000000E+00  0.00000000E+00
