Te                                      
   1.00000000000000     
     9.6768936560985743    0.0000000000000000    0.0000000000000006
    -0.0000000000000006    9.3519449600000009    0.0000000000000006
     0.0000000000000000    0.0000000000000000   31.2754595884879443
   Te
    24
Selective dynamics
Direct
  0.1666666666666643  0.7500000000000000  0.4963045828571424   F   F   F
  0.1666666666666643  0.2500000000000000  0.3608382742857117   F   F   F
  0.1666666666666643  0.0000000000000000  0.4285714285714306   F   F   F
  0.1666666666666643  0.5000000000000000  0.4285714285714306   F   F   F
  0.1698800375475642  0.7497662904406681  0.6433381884241030   T   T   T
  0.1640682411542258  0.2499520812282512  0.5176045732666381   T   T   T
  0.1664659281004290  0.0073110217386159  0.5780849844129108   T   T   T
  0.1671064228406181  0.4926869660504778  0.5781073059625754   T   T   T
  0.5000000000000000  0.7500000000000000  0.4963045828571424   F   F   F
  0.5000000000000000  0.2500000000000000  0.3608382742857117   F   F   F
  0.5000000000000000  0.0000000000000000  0.4285714285714306   F   F   F
  0.5000000000000000  0.5000000000000000  0.4285714285714306   F   F   F
  0.4773073260512959  0.7499309160865195  0.6402793100007784   T   T   T
  0.5184653557834551  0.2495755816875231  0.5159418780110769   T   T   T
  0.4987966516637456  0.9954777923435216  0.5803797092492431   T   T   T
  0.4986108891851515  0.5041197906980486  0.5805571910680527   T   T   T
  0.8333333333333357  0.7500000000000000  0.4963045828571424   F   F   F
  0.8333333333333357  0.2500000000000000  0.3608382742857117   F   F   F
  0.8333333333333357  0.0000000000000000  0.4285714285714306   F   F   F
  0.8333333333333357  0.5000000000000000  0.4285714285714306   F   F   F
  0.8523018559394160  0.7501050498968809  0.6400407732875237   T   T   T
  0.8174527160891998  0.2501051740327682  0.5155533332495494   T   T   T
  0.8347617309380198  0.9935270425700722  0.5809178265363926   T   T   T
  0.8343328072744924  0.5066852159821664  0.5808528338130117   T   T   T
 
  0.00000000E+00  0.00000000E+00  0.00000000E+00
  0.00000000E+00  0.00000000E+00  0.00000000E+00
  0.00000000E+00  0.00000000E+00  0.00000000E+00
  0.00000000E+00  0.00000000E+00  0.00000000E+00
  0.00000000E+00  0.00000000E+00  0.00000000E+00
  0.00000000E+00  0.00000000E+00  0.00000000E+00
  0.00000000E+00  0.00000000E+00  0.00000000E+00
  0.00000000E+00  0.00000000E+00  0.00000000E+00
  0.00000000E+00  0.00000000E+00  0.00000000E+00
  0.00000000E+00  0.00000000E+00  0.00000000E+00
  0.00000000E+00  0.00000000E+00  0.00000000E+00
  0.00000000E+00  0.00000000E+00  0.00000000E+00
  0.00000000E+00  0.00000000E+00  0.00000000E+00
  0.00000000E+00  0.00000000E+00  0.00000000E+00
  0.00000000E+00  0.00000000E+00  0.00000000E+00
  0.00000000E+00  0.00000000E+00  0.00000000E+00
  0.00000000E+00  0.00000000E+00  0.00000000E+00
  0.00000000E+00  0.00000000E+00  0.00000000E+00
  0.00000000E+00  0.00000000E+00  0.00000000E+00
  0.00000000E+00  0.00000000E+00  0.00000000E+00
  0.00000000E+00  0.00000000E+00  0.00000000E+00
  0.00000000E+00  0.00000000E+00  0.00000000E+00
  0.00000000E+00  0.00000000E+00  0.00000000E+00
  0.00000000E+00  0.00000000E+00  0.00000000E+00
