Te
 1.0000000000000000
     9.6768936560985743    0.0000000000000000    0.0000000000000006
    -0.0000000000000006    9.3519449600000009    0.0000000000000006
     0.0000000000000000    0.0000000000000000   31.2754595884879443
Te
24
Selective dynamics
Cartesian
  1.6128156093497619  7.0139587200000006 15.5221539247299383   F   F   F
  1.6128156093497621  2.3379862400000007 11.2853828654025854   F   F   F
  1.6128156093497623  0.0000000000000000 13.4037683950662636   F   F   F
  1.6128156093497621  4.6759724800000004 13.4037683950662636   F   F   F
  1.6439110576417970  7.0117730810645140 20.1206975137890431   T   T   T
  1.5876709219925926  2.3375381062840375 16.1883209140173179   T   T   T
  1.6108730835915808  0.0683722729008878 18.0798735687177015   T   T   T
  1.6170710830796891  4.6075813890134487 18.0805716854420808   T   T   T
  4.8384468280492863  7.0139587200000006 15.5221539247299383   F   F   F
  4.8384468280492872  2.3379862400000007 11.2853828654025854   F   F   F
  4.8384468280492872  0.0000000000000000 13.4037683950662636   F   F   F
  4.8384468280492872  4.6759724800000004 13.4037683950662636   F   F   F
  4.6188522354751465  7.0133126510435160 20.0250296852743368   T   T   T
  5.0171341122878363  2.3340171033017127 16.1363193557439857   T   T   T
  4.8268021541681225 -0.0422914371010847 18.1516421426031940   T   T   T
  4.8250045504174484  4.7145005358548406 18.1571929680549857   T   T   T
  8.0640780467488113  7.0139587200000006 15.5221539247299383   F   F   F
  8.0640780467488113  2.3379862400000007 11.2853828654025854   F   F   F
  8.0640780467488113  0.0000000000000000 13.4037683950662636   F   F   F
  8.0640780467488113  4.6759724800000004 13.4037683950662636   F   F   F
  8.2476344228211858  7.0149411408536890 20.0175693399384791   T   T   T
  7.9104030024841379  2.3389698217656956 16.1241674397564978   T   T   T
  8.0779004984680043 -0.0605347416130826 18.1684720080712196   T   T   T
  8.0737498497894578  4.7384922519109569 18.1664393307774645   T   T   T
