Ge Sb Te
 1.0000000000000000
     8.7539296461632610   -0.0000000000000000   -0.0000000000000005
     4.3769648230816331    7.5811254565191044   -0.0000000000000004
    -0.0000000000000000    0.0000000000000064   52.6154257406547643
Ge Sb Te
4 16 16
Selective dynamics
Cartesian
  2.5532294801309523  3.1588022735496315 24.2755238680816383   F   F   F
  4.7420275619891434  1.8947482378469904 32.9394517643221292   T   T   T
  2.5542927490449330  0.6306004970717779 34.5106536308374316   T   T   T
  2.5532294801309514  0.6317604547099285 28.0324445091814063   F   F   F
  4.7417118916717662  1.8952813641297785 20.5186032269818419   F   F   F
  4.7417118916717662  1.8952813641297790 25.9977945957813859   F   F   F
  2.5532294801309519  0.6317604547099279 22.5532531403818908   F   F   F
  2.5532294801309519  3.1588022735496315 29.7611900911727965   F   F   F
  2.5532294801309523  3.1588022735496306 18.7898576449904589   F   F   F
  4.7417118916717689  6.9493650018091842 24.2755238680816383   F   F   F
  6.9350487389403757  5.6834207749157466 32.9412753624918508   T   T   T
  4.7391542161720661  4.4220301769615311 34.5091956708345506   T   T   T
  4.7417118916717680  4.4223231829694809 28.0324445091814063   F   F   F
  6.9301943032125823  5.6858440923893312 20.5186032269818419   F   F   F
  6.9301943032125823  5.6858440923893312 25.9977945957813859   F   F   F
  4.7417118916717680  4.4223231829694800 22.5532531403818908   F   F   F
  4.7417118916717680  6.9493650018091842 29.7611900911727965   F   F   F
  4.7417118916717689  6.9493650018091824 18.7898576449904589   F   F   F
  6.9301943032125823  3.1588022735496315 24.2755238680816383   F   F   F
  9.1156840814479576  1.8963185127853213 32.9433090700612041   T   T   T
  6.9325465798917580  0.6310606456717232 34.5094941570057827   T   T   T
  6.9301943032125823  0.6317604547099285 28.0324445091814063   F   F   F
  9.1186767147533967  1.8952813641297785 20.5186032269818419   F   F   F
  9.1186767147533967  1.8952813641297790 25.9977945957813859   F   F   F
  6.9301943032125823  0.6317604547099279 22.5532531403818908   F   F   F
  6.9301943032125823  3.1588022735496315 29.7611900911727965   F   F   F
  6.9301943032125823  3.1588022735496306 18.7898576449904589   F   F   F
  9.1186767147533985  6.9493650018091842 24.2755238680816383   F   F   F
 11.3062140350698073  5.6882429652610407 32.9468472900178853   T   T   T
  9.1196240961813757  4.4195909161565545 34.5084658890189431   T   T   T
  9.1186767147533985  4.4223231829694809 28.0324445091814063   F   F   F
 11.3071591262942128  5.6858440923893312 20.5186032269818419   F   F   F
 11.3071591262942128  5.6858440923893312 25.9977945957813859   F   F   F
  9.1186767147533985  4.4223231829694800 22.5532531403818908   F   F   F
  9.1186767147533985  6.9493650018091842 29.7611900911727965   F   F   F
  9.1186767147533985  6.9493650018091824 18.7898576449904589   F   F   F
