Bi Te Pb O                              
   1.00000000000000     
     9.3555735572755179    0.0000000000000000    0.0000000000000006
    -4.6777867786377580    8.1021643675745487    0.0000000000000006
     0.0000000000000000    0.0000000000000000   51.9786549458288150
   Bi   Te   Pb   O 
    12    20     4     1
Selective dynamics
Direct
  0.1666666666666643  0.3333333333333357  0.4631075900761132   F   F   F
  0.0000000000000000  0.0000000000000000  0.3878002867427810   F   F   F
  0.3333333333333357  0.1666666666666643  0.5370628400761106   F   F   F
  0.0000000000000000  0.0000000000000000  0.4989287634094453   F   F   F
  0.3333333333333357  0.1666666666666643  0.4297143634094454   F   F   F
  0.3352391653377822  0.1335431456758656  0.6569838812857540   T   T   T
  0.1666666666666643  0.3333333333333357  0.5683119667427761   F   F   F
  0.1666666666666643  0.3333333333333357  0.3576580600761119   F   F   F
  0.0053854365357680  0.9767273358322939  0.6269899083238144   T   T   T
  0.1666666666666643  0.8333333333333357  0.4631075900761132   F   F   F
  0.0000000000000000  0.5000000000000000  0.3878002867427810   F   F   F
  0.3333333333333357  0.6666666666666643  0.5370628400761106   F   F   F
  0.0000000000000000  0.5000000000000000  0.4989287634094453   F   F   F
  0.3333333333333357  0.6666666666666643  0.4297143634094454   F   F   F
  0.3091874166001389  0.6174569348313312  0.6566530026594677   T   T   T
  0.1666666666666643  0.8333333333333357  0.5683119667427761   F   F   F
  0.1666666666666643  0.8333333333333357  0.3576580600761119   F   F   F
  0.0060040816849849  0.5263767584176193  0.6223559260155156   T   T   T
  0.6666666666666643  0.3333333333333357  0.4631075900761132   F   F   F
  0.5000000000000000  0.0000000000000000  0.3878002867427810   F   F   F
  0.8333333333333357  0.1666666666666643  0.5370628400761106   F   F   F
  0.5000000000000000  0.0000000000000000  0.4989287634094453   F   F   F
  0.8333333333333357  0.1666666666666643  0.4297143634094454   F   F   F
  0.8339331031788433  0.1190755403541033  0.6602186969465293   T   T   T
  0.6666666666666643  0.3333333333333357  0.5683119667427761   F   F   F
  0.6666666666666643  0.3333333333333357  0.3576580600761119   F   F   F
  0.5083640506511955  0.9617533731132184  0.6303985800456360   T   T   T
  0.6666666666666643  0.8333333333333357  0.4631075900761132   F   F   F
  0.5000000000000000  0.5000000000000000  0.3878002867427810   F   F   F
  0.8333333333333357  0.6666666666666643  0.5370628400761106   F   F   F
  0.5000000000000000  0.5000000000000000  0.4989287634094453   F   F   F
  0.8333333333333357  0.6666666666666643  0.4297143634094454   F   F   F
  0.8333468067339354  0.6573577890579898  0.6578299289298002   T   T   T
  0.6666666666666643  0.8333333333333357  0.5683119667427761   F   F   F
  0.6666666666666643  0.8333333333333357  0.3576580600761119   F   F   F
  0.4962862356778075  0.4692342412939894  0.6280893478606160   T   T   T
  0.8335174389026037  0.2596224179352760  0.6315675896816373   T   T   T
 
  0.00000000E+00  0.00000000E+00  0.00000000E+00
  0.00000000E+00  0.00000000E+00  0.00000000E+00
  0.00000000E+00  0.00000000E+00  0.00000000E+00
  0.00000000E+00  0.00000000E+00  0.00000000E+00
  0.00000000E+00  0.00000000E+00  0.00000000E+00
  0.00000000E+00  0.00000000E+00  0.00000000E+00
  0.00000000E+00  0.00000000E+00  0.00000000E+00
  0.00000000E+00  0.00000000E+00  0.00000000E+00
  0.00000000E+00  0.00000000E+00  0.00000000E+00
  0.00000000E+00  0.00000000E+00  0.00000000E+00
  0.00000000E+00  0.00000000E+00  0.00000000E+00
  0.00000000E+00  0.00000000E+00  0.00000000E+00
  0.00000000E+00  0.00000000E+00  0.00000000E+00
  0.00000000E+00  0.00000000E+00  0.00000000E+00
  0.00000000E+00  0.00000000E+00  0.00000000E+00
  0.00000000E+00  0.00000000E+00  0.00000000E+00
  0.00000000E+00  0.00000000E+00  0.00000000E+00
  0.00000000E+00  0.00000000E+00  0.00000000E+00
  0.00000000E+00  0.00000000E+00  0.00000000E+00
  0.00000000E+00  0.00000000E+00  0.00000000E+00
  0.00000000E+00  0.00000000E+00  0.00000000E+00
  0.00000000E+00  0.00000000E+00  0.00000000E+00
  0.00000000E+00  0.00000000E+00  0.00000000E+00
  0.00000000E+00  0.00000000E+00  0.00000000E+00
  0.00000000E+00  0.00000000E+00  0.00000000E+00
  0.00000000E+00  0.00000000E+00  0.00000000E+00
  0.00000000E+00  0.00000000E+00  0.00000000E+00
  0.00000000E+00  0.00000000E+00  0.00000000E+00
  0.00000000E+00  0.00000000E+00  0.00000000E+00
  0.00000000E+00  0.00000000E+00  0.00000000E+00
  0.00000000E+00  0.00000000E+00  0.00000000E+00
  0.00000000E+00  0.00000000E+00  0.00000000E+00
  0.00000000E+00  0.00000000E+00  0.00000000E+00
  0.00000000E+00  0.00000000E+00  0.00000000E+00
  0.00000000E+00  0.00000000E+00  0.00000000E+00
  0.00000000E+00  0.00000000E+00  0.00000000E+00
  0.00000000E+00  0.00000000E+00  0.00000000E+00
