Bi Te Pb O
 1.0000000000000000
     9.3555735572755179    0.0000000000000000    0.0000000000000006
    -4.6777867786377580    8.1021643675745487    0.0000000000000006
     0.0000000000000000    0.0000000000000000   51.9786549458288150
Bi Te Pb O
12 20 4 1
Selective dynamics
Cartesian
  0.0000000000000004  2.7007214558581829 24.0717096273605300   F   F   F
  0.0000000000000000  0.0000000000000000 20.1573372924963259   F   F   F
  2.3388933893188795  1.3503607279290917 27.9158040485430377   F   F   F
  0.0000000000000000  0.0000000000000000 25.9336460358085859   F   F   F
  2.3388933893188795  1.3503607279290917 22.3359746209260095   F   F   F
  2.5116683093770251  1.0819885164288279 34.1491384703235497   T   T   T
  0.0000000000000004  2.7007214558581829 29.5400916209082034   F   F   F
  0.0000000000000004  2.7007214558581829 18.5905848932906999   F   F   F
  0.1592484083957970 -0.1885589503581286 32.5900920992802128   T   T   T
 -2.3388933893188786  6.7518036396454573 24.0717096273605300   F   F   F
 -2.3388933893188790  4.0510821837872744 20.1573372924963259   F   F   F
  0.0000000000000004  5.4014429117163658 27.9158040485430377   F   F   F
 -2.3388933893188790  4.0510821837872744 25.9336460358085859   F   F   F
  0.0000000000000004  5.4014429117163658 22.3359746209260095   F   F   F
  0.0042937328544217  5.0027375759022092 34.1319398443788202   T   T   T
 -2.3388933893188786  6.7518036396454573 29.5400916209082034   F   F   F
 -2.3388933893188786  6.7518036396454573 18.5905848932906999   F   F   F
 -2.4061066132603868  4.2647910159706033 32.3492239318523787   T   T   T
  4.6777867786377598  2.7007214558581829 24.0717096273605300   F   F   F
  4.6777867786377589  0.0000000000000000 20.1573372924963259   F   F   F
  7.0166801679566380  1.3503607279290917 27.9158040485430377   F   F   F
  4.6777867786377589  0.0000000000000000 25.9336460358085859   F   F   F
  7.0166801679566380  1.3503607279290917 22.3359746209260095   F   F   F
  7.2449125003091286  0.9647696001066832 34.3172798373684316   T   T   T
  4.6777867786377598  2.7007214558581829 29.5400916209082034   F   F   F
  4.6777867786377598  2.7007214558581829 18.5905848932906999   F   F   F
  4.9349468353203099 -0.3098804575420218 32.7672702705325207   T   T   T
  2.3388933893188804  6.7518036396454573 24.0717096273605300   F   F   F
  2.3388933893188799  4.0510821837872744 20.1573372924963259   F   F   F
  4.6777867786377598  5.4014429117163658 27.9158040485430377   F   F   F
  2.3388933893188799  4.0510821837872744 25.9336460358085859   F   F   F
  4.6777867786377598  5.4014429117163658 22.3359746209260095   F   F   F
  4.7214577746299753  5.3260208552532262 34.1931148888811265   T   T   T
  2.3388933893188804  6.7518036396454573 29.5400916209082034   F   F   F
  2.3388933893188804  6.7518036396454573 18.5905848932906999   F   F   F
  2.4480646533379762  3.8018129498580482 32.6472394875976022   T   T   T
  6.5835753968695778  2.1035035036187577 32.8280338190304661   T   T   T
