Ta Te Cl
 1.0000000000000000
     9.9111196088141611    0.0000000000000000   -0.6838774802203457
     4.3762242466317618   11.3243422398367120    1.7604012360617689
     0.0000000000000000    0.0000000000000000   33.1015516986559746
Ta Te Cl
4 8 24
Selective dynamics
Cartesian
  7.1439711770382148  2.2901901301893037 18.8063973759264087   F   F   F
  2.1884113726311343  2.2901901301893037 13.6314108329272567   F   F   F
 12.0989324828147886  9.0341521096474082 15.0297393384608107   F   F   F
  7.1508055642351911  9.0325572885389249 20.8736059600854276   T   T   T
  5.2156681593419716  5.7157242741008112 14.0411583408350609   F   F   F
 10.2356257229025598  5.6958947900169541 19.3285699547013934   T   T   T
  4.1096124048292832  5.5366974367716457 20.8045466761136382   T   T   T
  9.0716756961039486  5.6086179657359017 14.6199918305530048   F   F   F
  2.2655722794721389  3.8053348581543029 19.7450318498943389   T   T   T
  7.1675988260208561  3.8093292386565660 13.7750499977755361   F   F   F
  7.1197450294250650  7.5150130011801464 14.8861001736125313   F   F   F
 12.0992954140284255  7.4620461531861890 20.2770794822001399   T   T   T
  7.7591472392544754  0.1598137960954817 19.5155012669774059   T   T   T
  2.8076657216273797  0.1517836695866252 14.3544425310237962   F   F   F
 11.4796781338185401 11.1725585702500876 14.3067076403642695   F   F   F
  6.5241183294114595 11.1725585702500876 20.1655716635837692   F   F   F
  9.3261033981793524  2.6843702129854106 17.7657004253520512   F   F   F
  4.3705435937722674  2.6843702129854106 12.5907138823528939   F   F   F
  9.9168002616736501  8.6399720268513018 16.0704362890351717   F   F   F
  4.9895408315217651  8.6470043654829905 21.9621256769204400   T   T   T
  3.0834286551399295  3.2393645620873035 15.6396813581092040   F   F   F
  8.0711375011424131  3.1817214080188028 20.8029078094082358   T   T   T
  6.2483553958989120  8.0849776777494089 18.8803328364983614   F   F   F
 11.2039152003059908  8.0849776777494089 13.0214688132788599   F   F   F
  2.8050743702745509  6.8063447232849548 16.4440815951356143   F   F   F
  7.7754715600788167  6.8345565732594231 21.6185955250130455   T   T   T
  6.5267096807642915  4.5179975165517572 18.0759325994719511   F   F   F
 11.4822694851713702  4.5179975165517572 12.2170685762524496   F   F   F
 12.8821259507893693  9.8959462181714830 17.0740372999373733   F   F   F
  7.9195924655058878  9.9000927922402102 22.9054142708579107   T   T   T
  6.3607777090636368  1.4283960216652292 16.7620994144498461   F   F   F
  1.4052179046565536  1.4283960216652292 11.5871128714506959   F   F   F
  4.3418229873195351  9.2121765450721789 14.6632144704554559   F   F   F
  9.2973827917266156  9.2121765450721789 19.8382010134546114   F   F   F
  5.0358304400987208  2.1094457942919496 19.9225472996227033   T   T   T
  9.9455208681263851  2.1121656947645340 13.9979357009326080   F   F   F
