Cd Ge Se H O                            
   1.00000000000000     
    15.4276159042126828    0.0000000000000000    0.0000000000000009
    -0.0000000000000008   12.5648332814656172    4.5455312936084002
     0.0000000000000000    0.0000000000000000   40.0179154950146199
   Cd   Ge   Se   H    O 
    32     8    48     1     1
Selective dynamics
Direct
  0.1967537625000020  0.5060743800000012  0.5276585322828780   F   F   F
  0.3032462374999980  0.0060743800000012  0.5276585322828780   F   F   F
  0.4471672625000025  0.6940883999999983  0.5354901389495410   F   F   F
  0.3028327374999975  0.1940883999999983  0.3688234722828767   F   F   F
  0.4633054500000000  0.6993249000000006  0.4211424772828778   F   F   F
  0.2891332390000585  0.2001902186638418  0.5912092385341410   T   T   T
  0.1474850900000035  0.8562214800000021  0.4661341472828795   F   F   F
  0.3525149099999965  0.3562214800000021  0.4661341472828795   F   F   F
  0.4467537625000020  0.5060743800000012  0.3609918656162137   F   F   F
  0.0532462374999980  0.0060743800000012  0.3609918656162137   F   F   F
  0.1971672625000025  0.6940883999999983  0.3688234722828767   F   F   F
  0.0528327374999975  0.1940883999999983  0.5354901389495410   F   F   F
  0.1989452421854736  0.7262827903027969  0.5853553735875749   T   T   T
  0.0366945500000000  0.1993249000000006  0.4211424772828778   F   F   F
  0.4091341938964419  0.9152554493793161  0.6153217030955602   T   T   T
  0.0507507684059547  0.3650071498044269  0.6200058199312934   T   T   T
  0.3689956781568142  0.4460827873004476  0.6121164118096374   T   T   T
  0.3853868225000028  0.9429900599999996  0.4442190256162135   F   F   F
  0.1146131774999972  0.4429900599999996  0.4442190256162135   F   F   F
  0.1349223365174979  0.9427209504985044  0.6124464239260945   T   T   T
  0.3765175974999977  0.1916705499999978  0.5290536289495478   F   F   F
  0.1234824025000023  0.6916705499999978  0.5290536289495478   F   F   F
  0.3709391699999998  0.4972009000000028  0.5473450139495455   F   F   F
  0.1290608300000002  0.9972009000000028  0.5473450139495455   F   F   F
  0.3636904724999965  0.8133133999999984  0.5709544156162139   F   F   F
  0.1363095275000035  0.3133133999999984  0.5709544156162139   F   F   F
  0.3634858074999983  0.7540413299999997  0.4692048756162137   F   F   F
  0.3661754343505805  0.2604472929436170  0.6409960333808655   T   T   T
  0.0106308399999975  0.9961775399999979  0.4691590372828784   F   F   F
  0.4893691600000025  0.4961775399999979  0.4691590372828784   F   F   F
  0.2581896224999980  0.0238970600000030  0.4595127489495425   F   F   F
  0.4822885601772384  0.5388044301091597  0.6280863919275816   T   T   T
  0.1265175974999977  0.1916705499999978  0.3623869622828764   F   F   F
  0.3734824025000023  0.6916705499999978  0.3623869622828764   F   F   F
  0.1209391699999998  0.4972009000000028  0.3806783472828812   F   F   F
  0.3790608300000002  0.9972009000000028  0.3806783472828812   F   F   F
  0.1136904724999965  0.8133133999999984  0.4042877489495424   F   F   F
  0.3863095275000035  0.3133133999999984  0.4042877489495424   F   F   F
  0.1156233948343015  0.7565742290168203  0.6376721128404199   T   T   T
  0.1365141925000017  0.2540413299999997  0.4692048756162137   F   F   F
  0.2650747652021792  0.9953522375216153  0.6357623151456906   T   T   T
  0.2465447139961014  0.5020838408536505  0.6419494112353092   T   T   T
  0.0211447295313718  0.0334537819737974  0.6297335378613269   T   T   T
  0.2418103775000020  0.5238970600000030  0.4595127489495425   F   F   F
  0.6967537625000020  0.5060743800000012  0.5276585322828780   F   F   F
  0.8032462374999980  0.0060743800000012  0.5276585322828780   F   F   F
  0.9471672625000025  0.6940883999999983  0.5354901389495410   F   F   F
  0.8028327374999975  0.1940883999999983  0.3688234722828767   F   F   F
  0.9633054500000000  0.6993249000000006  0.4211424772828778   F   F   F
  0.7940278292187060  0.2065917025995532  0.5908280718527834   T   T   T
  0.6474850899999964  0.8562214800000021  0.4661341472828795   F   F   F
  0.8525149099999965  0.3562214800000021  0.4661341472828795   F   F   F
  0.9467537625000020  0.5060743800000012  0.3609918656162137   F   F   F
  0.5532462374999980  0.0060743800000012  0.3609918656162137   F   F   F
  0.6971672625000025  0.6940883999999983  0.3688234722828767   F   F   F
  0.5528327374999975  0.1940883999999983  0.5354901389495410   F   F   F
  0.7051870141725445  0.7138813550542125  0.5912406689269858   T   T   T
  0.5366945500000000  0.1993249000000006  0.4211424772828778   F   F   F
  0.9030805775178266  0.9167687985331483  0.6151715041271615   T   T   T
  0.6005039529221037  0.4215480901097095  0.6134706134020291   T   T   T
  0.8631266738488321  0.4566689107614010  0.6114987701202068   T   T   T
  0.8853868225000028  0.9429900599999996  0.4442190256162135   F   F   F
  0.6146131774999972  0.4429900599999996  0.4442190256162135   F   F   F
  0.6329819237876606  0.9499870533741444  0.6118636898678673   T   T   T
  0.8765175974999977  0.1916705499999978  0.5290536289495478   F   F   F
  0.6234824025000023  0.6916705499999978  0.5290536289495478   F   F   F
  0.8709391699999998  0.4972009000000028  0.5473450139495455   F   F   F
  0.6290608300000002  0.9972009000000028  0.5473450139495455   F   F   F
  0.8636904724999965  0.8133133999999984  0.5709544156162139   F   F   F
  0.6363095274999964  0.3133133999999984  0.5709544156162139   F   F   F
  0.8634858074999983  0.7540413299999997  0.4692048756162137   F   F   F
  0.8870605253253814  0.2675355873673411  0.6380901438556563   T   T   T
  0.5106308399999975  0.9961775399999979  0.4691590372828784   F   F   F
  0.9893691600000025  0.4961775399999979  0.4691590372828784   F   F   F
  0.7581896224999980  0.0238970600000030  0.4595127489495425   F   F   F
  0.9851911912637377  0.5432622011819390  0.6249682916600960   T   T   T
  0.6265175974999977  0.1916705499999978  0.3623869622828764   F   F   F
  0.8734824025000023  0.6916705499999978  0.3623869622828764   F   F   F
  0.6209391699999998  0.4972009000000028  0.3806783472828741   F   F   F
  0.8790608300000002  0.9972009000000028  0.3806783472828812   F   F   F
  0.6136904724999965  0.8133133999999984  0.4042877489495424   F   F   F
  0.8863095275000035  0.3133133999999984  0.4042877489495424   F   F   F
  0.6078808496966062  0.7660052466270812  0.6372932567928586   T   T   T
  0.6365141925000017  0.2540413299999997  0.4692048756162137   F   F   F
  0.7632103968684518  0.0026679816581989  0.6354149830711151   T   T   T
  0.7355915904355896  0.5061970841218937  0.6360059762768131   T   T   T
  0.5193375518183245  0.0484898872778743  0.6259490880750604   T   T   T
  0.7418103775000020  0.5238970600000030  0.4595127489495425   F   F   F
  0.2287991489266474  0.3199668312619011  0.6553290428320651   T   T   T
  0.1825870887834995  0.3752684032583176  0.6526432945356149   T   T   T
 
  0.00000000E+00  0.00000000E+00  0.00000000E+00
  0.00000000E+00  0.00000000E+00  0.00000000E+00
  0.00000000E+00  0.00000000E+00  0.00000000E+00
  0.00000000E+00  0.00000000E+00  0.00000000E+00
  0.00000000E+00  0.00000000E+00  0.00000000E+00
  0.00000000E+00  0.00000000E+00  0.00000000E+00
  0.00000000E+00  0.00000000E+00  0.00000000E+00
  0.00000000E+00  0.00000000E+00  0.00000000E+00
  0.00000000E+00  0.00000000E+00  0.00000000E+00
  0.00000000E+00  0.00000000E+00  0.00000000E+00
  0.00000000E+00  0.00000000E+00  0.00000000E+00
  0.00000000E+00  0.00000000E+00  0.00000000E+00
  0.00000000E+00  0.00000000E+00  0.00000000E+00
  0.00000000E+00  0.00000000E+00  0.00000000E+00
  0.00000000E+00  0.00000000E+00  0.00000000E+00
  0.00000000E+00  0.00000000E+00  0.00000000E+00
  0.00000000E+00  0.00000000E+00  0.00000000E+00
  0.00000000E+00  0.00000000E+00  0.00000000E+00
  0.00000000E+00  0.00000000E+00  0.00000000E+00
  0.00000000E+00  0.00000000E+00  0.00000000E+00
  0.00000000E+00  0.00000000E+00  0.00000000E+00
  0.00000000E+00  0.00000000E+00  0.00000000E+00
  0.00000000E+00  0.00000000E+00  0.00000000E+00
  0.00000000E+00  0.00000000E+00  0.00000000E+00
  0.00000000E+00  0.00000000E+00  0.00000000E+00
  0.00000000E+00  0.00000000E+00  0.00000000E+00
  0.00000000E+00  0.00000000E+00  0.00000000E+00
  0.00000000E+00  0.00000000E+00  0.00000000E+00
  0.00000000E+00  0.00000000E+00  0.00000000E+00
  0.00000000E+00  0.00000000E+00  0.00000000E+00
  0.00000000E+00  0.00000000E+00  0.00000000E+00
  0.00000000E+00  0.00000000E+00  0.00000000E+00
  0.00000000E+00  0.00000000E+00  0.00000000E+00
  0.00000000E+00  0.00000000E+00  0.00000000E+00
  0.00000000E+00  0.00000000E+00  0.00000000E+00
  0.00000000E+00  0.00000000E+00  0.00000000E+00
  0.00000000E+00  0.00000000E+00  0.00000000E+00
  0.00000000E+00  0.00000000E+00  0.00000000E+00
  0.00000000E+00  0.00000000E+00  0.00000000E+00
  0.00000000E+00  0.00000000E+00  0.00000000E+00
  0.00000000E+00  0.00000000E+00  0.00000000E+00
  0.00000000E+00  0.00000000E+00  0.00000000E+00
  0.00000000E+00  0.00000000E+00  0.00000000E+00
  0.00000000E+00  0.00000000E+00  0.00000000E+00
  0.00000000E+00  0.00000000E+00  0.00000000E+00
  0.00000000E+00  0.00000000E+00  0.00000000E+00
  0.00000000E+00  0.00000000E+00  0.00000000E+00
  0.00000000E+00  0.00000000E+00  0.00000000E+00
  0.00000000E+00  0.00000000E+00  0.00000000E+00
  0.00000000E+00  0.00000000E+00  0.00000000E+00
  0.00000000E+00  0.00000000E+00  0.00000000E+00
  0.00000000E+00  0.00000000E+00  0.00000000E+00
  0.00000000E+00  0.00000000E+00  0.00000000E+00
  0.00000000E+00  0.00000000E+00  0.00000000E+00
  0.00000000E+00  0.00000000E+00  0.00000000E+00
  0.00000000E+00  0.00000000E+00  0.00000000E+00
  0.00000000E+00  0.00000000E+00  0.00000000E+00
  0.00000000E+00  0.00000000E+00  0.00000000E+00
  0.00000000E+00  0.00000000E+00  0.00000000E+00
  0.00000000E+00  0.00000000E+00  0.00000000E+00
  0.00000000E+00  0.00000000E+00  0.00000000E+00
  0.00000000E+00  0.00000000E+00  0.00000000E+00
  0.00000000E+00  0.00000000E+00  0.00000000E+00
  0.00000000E+00  0.00000000E+00  0.00000000E+00
  0.00000000E+00  0.00000000E+00  0.00000000E+00
  0.00000000E+00  0.00000000E+00  0.00000000E+00
  0.00000000E+00  0.00000000E+00  0.00000000E+00
  0.00000000E+00  0.00000000E+00  0.00000000E+00
  0.00000000E+00  0.00000000E+00  0.00000000E+00
  0.00000000E+00  0.00000000E+00  0.00000000E+00
  0.00000000E+00  0.00000000E+00  0.00000000E+00
  0.00000000E+00  0.00000000E+00  0.00000000E+00
  0.00000000E+00  0.00000000E+00  0.00000000E+00
  0.00000000E+00  0.00000000E+00  0.00000000E+00
  0.00000000E+00  0.00000000E+00  0.00000000E+00
  0.00000000E+00  0.00000000E+00  0.00000000E+00
  0.00000000E+00  0.00000000E+00  0.00000000E+00
  0.00000000E+00  0.00000000E+00  0.00000000E+00
  0.00000000E+00  0.00000000E+00  0.00000000E+00
  0.00000000E+00  0.00000000E+00  0.00000000E+00
  0.00000000E+00  0.00000000E+00  0.00000000E+00
  0.00000000E+00  0.00000000E+00  0.00000000E+00
  0.00000000E+00  0.00000000E+00  0.00000000E+00
  0.00000000E+00  0.00000000E+00  0.00000000E+00
  0.00000000E+00  0.00000000E+00  0.00000000E+00
  0.00000000E+00  0.00000000E+00  0.00000000E+00
  0.00000000E+00  0.00000000E+00  0.00000000E+00
  0.00000000E+00  0.00000000E+00  0.00000000E+00
  0.00000000E+00  0.00000000E+00  0.00000000E+00
  0.00000000E+00  0.00000000E+00  0.00000000E+00
