Cd Ge Se H O
 1.0000000000000000
    15.4276159042126828    0.0000000000000000    0.0000000000000009
    -0.0000000000000008   12.5648332814656172    4.5455312936084002
     0.0000000000000000    0.0000000000000000   40.0179154950146199
Cd Ge Se H O
32 8 48 1 1
Selective dynamics
Cartesian
  3.0354414755586849  6.3587402127210728 23.4161714863031136   F   F   F
  4.6783664765476551  0.0763235719882669 21.1434058394989144   F   F   F
  6.8987247707882462  8.7211050285992169 24.5841996716270899   F   F   F
  4.6719871573712650  2.4386883878664078 15.6417814423204540   F   F   F
  7.1476985289284123  8.7869007780776140 20.0320472846168798   F   F   F
  4.4606365564337862  2.5153567220912989 24.5689322511420869   T   T   T
  2.2753433201182380 10.7582801482097441 22.5456984469065951   F   F   F
  5.4384646319881025  4.4758635074769373 20.2729328001023994   F   F   F
  6.8923454516118570  6.3587402127210728 16.7465189038006734   F   F   F
  0.8214625004944834  0.0763235719882669 14.4737532569964760   F   F   F
  3.0418207947350755  8.7211050285992169 17.9145470891246532   F   F   F
  0.8150831813180938  2.4386883878664078 22.3114340248228906   F   F   F
  3.0692507824080644  9.1256221753522535 26.7260430261108546   T   T   T
  0.5661094231779265  2.5044841373448050 17.7592816378126805   F   F   F
  6.3119651967139365 11.5000321314040068 28.7842142035258490   T   T   T
  0.7829633618107383  4.5862539838355261 26.4704919302545996   T   T   T
  5.6927235929178046  5.6049558521616332 26.5233061101239436   T   T   T
  5.9455998720749896 11.8485128899792596 22.0631102556789287   F   F   F
  1.7682080800313498  5.5660962492464519 19.7903446088747295   F   F   F
  2.0815299846908606 11.8451315739585095 28.7939968195296885   T   T   T
  5.8087688754069484  2.4083085057168194 22.0428678987218234   F   F   F
  1.9050390766993921  8.6907251464496280 24.3156335455260226   F   F   F
  5.7227070385874521  6.2472464158946606 24.1636487650107270   F   F   F
  1.9911009135188880 12.5296630566274683 26.4364144118149227   F   F   F
  5.6108769177516242 10.2191472765819551 26.5453470668460341   F   F   F
  2.1029310343547150  3.9367306358491461 24.2725814200418348   F   F   F
  5.6077194247425890  9.4744035987845958 22.2041195244474814   F   F   F
  5.6492139547190394  3.2724768144455831 26.8351964168857293   T   T   T
  0.1640085162591383 12.5168047088405459 23.3029228897684462   F   F   F
  7.5497994358472020  6.2343880681077390 21.0301572429642469   F   F   F
  3.9832503263836685  0.3002625748171797 18.4973671903999701   F   F   F
  7.4405626614101985  6.7699878356366865 27.5838605539227189   T   T   T
  1.9518648993537773  2.4083085057168194 15.3732153162193832   F   F   F
  5.7619430527525628  8.6907251464496280 17.6459809630235824   F   F   F
  1.8658030625342807  6.2472464158946606 17.4939961825082868   F   F   F
  5.8480048895720591 12.5296630566274683 19.7667618293124860   F   F   F
  1.7539729416984535 10.2191472765819551 19.8756944843435974   F   F   F
  5.9598350104078870  3.9367306358491461 17.6029288375393982   F   F   F
  1.7837933250447076  9.5062290526497630 28.9573405591088608   T   T   T
  2.1060885273637511  3.1919869580517863 19.9313538776432821   F   F   F
  4.0894716634385624 12.5064349207928629 29.9662873462326118   T   T   T
  3.8035971507458584  6.3085997536440228 27.9717151015042980   T   T   T
  0.3262127656084354  0.4203411931352550 25.3526887153627349   T   T   T
  3.7305576257226725  6.5826792155499900 20.7701328372041694   F   F   F
 10.7492494276650259  6.3587402127210728 23.4161714863031136   F   F   F
 12.3921744286539965  0.0763235719882669 21.1434058394989144   F   F   F
 14.6125327228945885  8.7211050285992169 24.5841996716270899   F   F   F
 12.3857951094776055  2.4386883878664078 15.6417814423204540   F   F   F
 14.8615064810347537  8.7869007780776140 20.0320472846168798   F   F   F
 12.2499563664419284  2.5957903004974994 24.5827769006532435   T   T   T
  9.9891512722245785 10.7582801482097441 22.5456984469065951   F   F   F
 13.1522725840944439  4.4758635074769373 20.2729328001023994   F   F   F
 14.6061534037181993  6.3587402127210728 16.7465189038006734   F   F   F
  8.5352704526008250  0.0763235719882669 14.4737532569964760   F   F   F
 10.7556287468414169  8.7211050285992169 17.9145470891246532   F   F   F
  8.5288911334244357  2.4386883878664078 22.3114340248228906   F   F   F
 10.8793543952926015  8.9698002090029316 26.9051891656586655   T   T   T
  8.2799173752842670  2.5044841373448050 17.7592816378126805   F   F   F
 13.9323802804995438 11.5190471112185353 28.7850825298380784   T   T   T
  9.2643443346436385  5.2966814723487587 26.4659752011518385   T   T   T
 13.3159868008204203  5.7379687285455061 26.5467089326598433   T   T   T
 13.6594078241813310 11.8485128899792596 22.0631102556789287   F   F   F
  9.4820160321376914  5.5660962492464519 19.7903446088747295   F   F   F
  9.7654019945056429 11.9364289451969068 28.8037053152352698   T   T   T
 13.5225768275132907  2.4083085057168194 22.0428678987218234   F   F   F
  9.6188470288057335  8.6907251464496280 24.3156335455260226   F   F   F
 13.4365149906937944  6.2472464158946606 24.1636487650107270   F   F   F
  9.7049088656252298 12.5296630566274683 26.4364144118149227   F   F   F
 13.3246848698579647 10.2191472765819551 26.5453470668460341   F   F   F
  9.8167389864610559  3.9367306358491461 24.2725814200418348   F   F   F
 13.3215273768489304  9.4744035987845958 22.2041195244474814   F   F   F
 13.6852290685091447  3.3615400521296417 26.7511288395496294   T   T   T
  7.8778164683654799 12.5168047088405459 23.3029228897684462   F   F   F
 15.2636073879535434  6.2343880681077390 21.0301572429642469   F   F   F
 11.6970582784900099  0.3002625748171797 18.4973671903999701   F   F   F
 15.1991512910306952  6.8259989859731034 27.4793436188245010   T   T   T
  9.6656728514601191  2.4083085057168194 15.3732153162193832   F   F   F
 13.4757510048589033  8.6907251464496280 17.6459809630235824   F   F   F
  9.5796110146406228  6.2472464158946606 17.4939961825082868   F   F   F
 13.5618128416783996 12.5296630566274683 19.7667618293124860   F   F   F
  9.4677808938047949 10.2191472765819551 19.8756944843435974   F   F   F
 13.6736429625142293  3.9367306358491461 17.6029288375393982   F   F   F
  9.3781522646456921  9.6247282165972532 28.9850485154909343   T   T   T
  9.8198964794700920  3.1919869580517863 19.9313538776432821   F   F   F
 11.7745168569882086 12.5983560261989354 29.9856417845326817   T   T   T
 11.3484245196092441  6.3602819695555919 27.7525680995791042   T   T   T
  8.0121402740872671  0.6092673494835710 25.2695900108144151   T   T   T
 11.4443655778290143  6.5826792155499900 20.7701328372041694   F   F   F
  3.5298253888510924  4.0203298904046436 27.6793215019001408   T   T   T
  2.8168834748202123  4.7151849227425355 27.8232184796272932   T   T   T
