Ag In S O                               
   1.00000000000000     
    14.4750361673258041    0.0000000000000000    0.0000000000000009
    -4.4500033945815796   13.7740386899994771    0.0000000000000009
     0.0000000000000000    0.0000000000000000   34.0720075092852923
   Ag   In   S    O 
    16    16    32     1
Selective dynamics
Direct
  0.0000000000000000  0.5000000000000000  0.4062500000000000   F   F   F
  0.2362108663491895  0.2505870845884104  0.5407676561638297   T   T   T
  0.2651451837759566  0.4762063608915383  0.5806656542615158   T   T   T
  0.5000000000000000  0.2500000000000000  0.4687500000000000   F   F   F
  0.0235473777681037  0.2404655832567641  0.5774943835761093   T   T   T
  0.2500000000000000  0.0000000000000000  0.4687500000000000   F   F   F
  0.4972527165999523  0.4953249807160844  0.5311888611816116   T   T   T
  0.2500000000000000  0.2500000000000000  0.4062500000000000   F   F   F
  0.4462538470164077  0.0591574438188758  0.5915012214694997   T   T   T
  0.1901424074999980  0.3151424074999980  0.4674287962499974   F   F   F
  0.4348575925000020  0.3098575925000020  0.4049287962499974   F   F   F
  0.1848575925000020  0.0598575925000020  0.5299287962499974   F   F   F
  0.4348575925000020  0.0598575925000020  0.4700712037500026   F   F   F
  0.1841908302479496  0.3097452116504940  0.6047982767415334   T   T   T
  0.1901424074999980  0.0651424074999980  0.4075712037500026   F   F   F
  0.4291309050308669  0.3118210548613121  0.5323176126142073   T   T   T
  0.0000000000000000  0.0000000000000000  0.4062500000000000   F   F   F
  0.2383606841507770  0.7496814159331038  0.5411382668480087   T   T   T
  0.2662228949103493  0.9783480928413582  0.5798953057079856   T   T   T
  0.5000000000000000  0.7500000000000000  0.4687500000000000   F   F   F
  0.0321382922174678  0.7441677278787324  0.5778774958819213   T   T   T
  0.2500000000000000  0.5000000000000000  0.4687500000000000   F   F   F
  0.4996354865450385  0.9937296382520273  0.5301125667938820   T   T   T
  0.2500000000000000  0.7500000000000000  0.4062500000000000   F   F   F
  0.4455790981114944  0.5626249333963926  0.5930162736615472   T   T   T
  0.1901424074999980  0.8151424074999980  0.4674287962499974   F   F   F
  0.4348575925000020  0.8098575925000020  0.4049287962499974   F   F   F
  0.1848575925000020  0.5598575925000020  0.5299287962499974   F   F   F
  0.4348575925000020  0.5598575925000020  0.4700712037500026   F   F   F
  0.1916747317852554  0.8127649401539969  0.6056268124303017   T   T   T
  0.1901424074999980  0.5651424074999980  0.4075712037500026   F   F   F
  0.4307505257954247  0.8095004216251596  0.5319114090267192   T   T   T
  0.5000000000000000  0.5000000000000000  0.4062500000000000   F   F   F
  0.7259783423724713  0.2505911838780435  0.5387597691895749   T   T   T
  0.7882399161687346  0.5215522930850724  0.5800235944437091   T   T   T
  0.0000000000000000  0.2500000000000000  0.4687500000000000   F   F   F
  0.5266065663507433  0.2363049786343581  0.5760194343488791   T   T   T
  0.7500000000000000  0.0000000000000000  0.4687500000000000   F   F   F
  0.0004401893974801  0.4967537049678370  0.5307274425925357   T   T   T
  0.7500000000000000  0.2500000000000000  0.4062500000000000   F   F   F
  0.9460516371254712  0.0637463836933279  0.5924499749349934   T   T   T
  0.6901424074999980  0.3151424074999980  0.4674287962499974   F   F   F
  0.9348575925000020  0.3098575925000020  0.4049287962499974   F   F   F
  0.6848575925000020  0.0598575925000020  0.5299287962499974   F   F   F
  0.9348575925000020  0.0598575925000020  0.4700712037500026   F   F   F
  0.6901133275594447  0.2811036127592885  0.6112496569048318   T   T   T
  0.6901424074999980  0.0651424074999980  0.4075712037500026   F   F   F
  0.9270898405969561  0.3129599237252094  0.5331916219556092   T   T   T
  0.5000000000000000  0.0000000000000000  0.4062500000000000   F   F   F
  0.7370301299129949  0.7534705142856026  0.5397998414583327   T   T   T
  0.7659797037948053  0.9761200839050446  0.5802517345354943   T   T   T
  0.0000000000000000  0.7500000000000000  0.4687500000000000   F   F   F
  0.5245342152819532  0.7392082576860659  0.5782252883602084   T   T   T
  0.7500000000000000  0.5000000000000000  0.4687500000000000   F   F   F
  0.9999791858044915  0.9970773602277134  0.5308478340655824   T   T   T
  0.7500000000000000  0.7500000000000000  0.4062500000000000   F   F   F
  0.9635371732013525  0.5683379594796563  0.5947086427699659   T   T   T
  0.6901424074999980  0.8151424074999980  0.4674287962499974   F   F   F
  0.9348575925000020  0.8098575925000020  0.4049287962499974   F   F   F
  0.6848575925000020  0.5598575925000020  0.5299287962499974   F   F   F
  0.9348575925000020  0.5598575925000020  0.4700712037500026   F   F   F
  0.6857749979418060  0.8095751321382210  0.6048104936862586   T   T   T
  0.6901424074999980  0.5651424074999980  0.4075712037500026   F   F   F
  0.9322627552357048  0.8122072224819803  0.5332417652701338   T   T   T
  0.7357978704686658  0.3879475803655978  0.6237403854919634   T   T   T
 
  0.00000000E+00  0.00000000E+00  0.00000000E+00
  0.00000000E+00  0.00000000E+00  0.00000000E+00
  0.00000000E+00  0.00000000E+00  0.00000000E+00
  0.00000000E+00  0.00000000E+00  0.00000000E+00
  0.00000000E+00  0.00000000E+00  0.00000000E+00
  0.00000000E+00  0.00000000E+00  0.00000000E+00
  0.00000000E+00  0.00000000E+00  0.00000000E+00
  0.00000000E+00  0.00000000E+00  0.00000000E+00
  0.00000000E+00  0.00000000E+00  0.00000000E+00
  0.00000000E+00  0.00000000E+00  0.00000000E+00
  0.00000000E+00  0.00000000E+00  0.00000000E+00
  0.00000000E+00  0.00000000E+00  0.00000000E+00
  0.00000000E+00  0.00000000E+00  0.00000000E+00
  0.00000000E+00  0.00000000E+00  0.00000000E+00
  0.00000000E+00  0.00000000E+00  0.00000000E+00
  0.00000000E+00  0.00000000E+00  0.00000000E+00
  0.00000000E+00  0.00000000E+00  0.00000000E+00
  0.00000000E+00  0.00000000E+00  0.00000000E+00
  0.00000000E+00  0.00000000E+00  0.00000000E+00
  0.00000000E+00  0.00000000E+00  0.00000000E+00
  0.00000000E+00  0.00000000E+00  0.00000000E+00
  0.00000000E+00  0.00000000E+00  0.00000000E+00
  0.00000000E+00  0.00000000E+00  0.00000000E+00
  0.00000000E+00  0.00000000E+00  0.00000000E+00
  0.00000000E+00  0.00000000E+00  0.00000000E+00
  0.00000000E+00  0.00000000E+00  0.00000000E+00
  0.00000000E+00  0.00000000E+00  0.00000000E+00
  0.00000000E+00  0.00000000E+00  0.00000000E+00
  0.00000000E+00  0.00000000E+00  0.00000000E+00
  0.00000000E+00  0.00000000E+00  0.00000000E+00
  0.00000000E+00  0.00000000E+00  0.00000000E+00
  0.00000000E+00  0.00000000E+00  0.00000000E+00
  0.00000000E+00  0.00000000E+00  0.00000000E+00
  0.00000000E+00  0.00000000E+00  0.00000000E+00
  0.00000000E+00  0.00000000E+00  0.00000000E+00
  0.00000000E+00  0.00000000E+00  0.00000000E+00
  0.00000000E+00  0.00000000E+00  0.00000000E+00
  0.00000000E+00  0.00000000E+00  0.00000000E+00
  0.00000000E+00  0.00000000E+00  0.00000000E+00
  0.00000000E+00  0.00000000E+00  0.00000000E+00
  0.00000000E+00  0.00000000E+00  0.00000000E+00
  0.00000000E+00  0.00000000E+00  0.00000000E+00
  0.00000000E+00  0.00000000E+00  0.00000000E+00
  0.00000000E+00  0.00000000E+00  0.00000000E+00
  0.00000000E+00  0.00000000E+00  0.00000000E+00
  0.00000000E+00  0.00000000E+00  0.00000000E+00
  0.00000000E+00  0.00000000E+00  0.00000000E+00
  0.00000000E+00  0.00000000E+00  0.00000000E+00
  0.00000000E+00  0.00000000E+00  0.00000000E+00
  0.00000000E+00  0.00000000E+00  0.00000000E+00
  0.00000000E+00  0.00000000E+00  0.00000000E+00
  0.00000000E+00  0.00000000E+00  0.00000000E+00
  0.00000000E+00  0.00000000E+00  0.00000000E+00
  0.00000000E+00  0.00000000E+00  0.00000000E+00
  0.00000000E+00  0.00000000E+00  0.00000000E+00
  0.00000000E+00  0.00000000E+00  0.00000000E+00
  0.00000000E+00  0.00000000E+00  0.00000000E+00
  0.00000000E+00  0.00000000E+00  0.00000000E+00
  0.00000000E+00  0.00000000E+00  0.00000000E+00
  0.00000000E+00  0.00000000E+00  0.00000000E+00
  0.00000000E+00  0.00000000E+00  0.00000000E+00
  0.00000000E+00  0.00000000E+00  0.00000000E+00
  0.00000000E+00  0.00000000E+00  0.00000000E+00
  0.00000000E+00  0.00000000E+00  0.00000000E+00
  0.00000000E+00  0.00000000E+00  0.00000000E+00
