Rb Sb S                                 
   1.00000000000000     
    13.2194173314844061    0.0000000000000000    3.4020833685027574
    -2.6159001194004001   11.9549387810215020   -4.4766740860332845
     0.0000000000000000    0.0000000000000000   40.6897654635237558
   Rb   Sb   S 
    16    16    32
Selective dynamics
Direct
  0.3379481249999969  0.8464224149999993  0.4856728791666640   F   F   F
  0.1620518750000031  0.1535775850000007  0.3476604541666646   F   F   F
  0.1394390049999998  0.4168542350000024  0.4692225308333349   F   F   F
  0.3605609950000002  0.5831457649999976  0.3641108025000008   F   F   F
  0.4090478899999965  0.3485902250000024  0.4057023458333333   F   F   F
  0.1019853250000011  0.9107798949999975  0.4009457574999971   F   F   F
  0.3980146749999989  0.0892201050000025  0.4323875758333315   F   F   F
  0.0909521100000035  0.6514097749999976  0.4276309875000024   F   F   F
  0.0841801199999992  0.1311910049999980  0.4349221158333307   F   F   F
  0.4158198800000008  0.8688089950000020  0.3984112174999979   F   F   F
  0.0981770550000007  0.4099075250000013  0.3897136358333313   F   F   F
  0.0990851800000030  0.8747535449999972  0.4576800508333321   F   F   F
  0.4018229449999993  0.5900924749999987  0.4436196974999973   F   F   F
  0.1159806450000005  0.6807036750000037  0.3680210974999980   F   F   F
  0.3840193549999995  0.3192963249999963  0.4653122358333306   F   F   F
  0.4009148199999970  0.1252464550000028  0.3756532824999965   F   F   F
  0.3349284485511248  0.8453865395560101  0.6451240827257791   T   T   T
  0.1620518750000031  0.1535775850000007  0.5143271208333360   F   F   F
  0.1575639887360367  0.3996967870629788  0.6345788953970555   T   T   T
  0.3605609950000002  0.5831457649999976  0.5307774691666651   F   F   F
  0.4171026979165973  0.3443466716685535  0.5740136606348685   T   T   T
  0.1019853250000011  0.9107798949999975  0.5676124241666685   F   F   F
  0.3980146749999989  0.0892201050000025  0.5990542425000029   F   F   F
  0.0874111361162022  0.6545054225125568  0.5938957762928325   T   T   T
  0.0811556771702229  0.1225095547734156  0.6032516229164386   T   T   T
  0.4158198800000008  0.8688089950000020  0.5650778841666693   F   F   F
  0.1023532443855188  0.4085399732938200  0.5580854915529159   T   T   T
  0.0963669433631011  0.8728044809254456  0.6242032281079091   T   T   T
  0.4022868777775130  0.5943994672961921  0.6115922623218424   T   T   T
  0.1159806450000005  0.6807036750000037  0.5346877641666694   F   F   F
  0.3969104141892288  0.3145839663699945  0.6318980041393445   T   T   T
  0.4009148199999970  0.1252464550000028  0.5423199491666679   F   F   F
  0.8379481249999969  0.8464224149999993  0.4856728791666640   F   F   F
  0.6620518750000031  0.1535775850000007  0.3476604541666646   F   F   F
  0.6394390049999998  0.4168542350000024  0.4692225308333349   F   F   F
  0.8605609950000002  0.5831457649999976  0.3641108025000008   F   F   F
  0.9090478899999965  0.3485902250000024  0.4057023458333333   F   F   F
  0.6019853250000011  0.9107798949999975  0.4009457574999971   F   F   F
  0.8980146749999989  0.0892201050000025  0.4323875758333315   F   F   F
  0.5909521100000035  0.6514097749999976  0.4276309875000024   F   F   F
  0.5841801199999992  0.1311910049999980  0.4349221158333307   F   F   F
  0.9158198800000008  0.8688089950000020  0.3984112174999979   F   F   F
  0.5981770550000007  0.4099075250000013  0.3897136358333313   F   F   F
  0.5990851800000030  0.8747535449999972  0.4576800508333321   F   F   F
  0.9018229449999993  0.5900924749999987  0.4436196974999973   F   F   F
  0.6159806450000005  0.6807036750000037  0.3680210974999980   F   F   F
  0.8840193549999995  0.3192963249999963  0.4653122358333306   F   F   F
  0.9009148199999970  0.1252464550000028  0.3756532824999965   F   F   F
  0.8349504917305737  0.8452905898826444  0.6450854140844413   T   T   T
  0.6620518750000031  0.1535775850000007  0.5143271208333360   F   F   F
  0.6573966526351711  0.3995658242189464  0.6345549304791476   T   T   T
  0.8605609950000002  0.5831457649999976  0.5307774691666651   F   F   F
  0.9169904532902038  0.3442749655267221  0.5740082667696100   T   T   T
  0.6019853250000011  0.9107798949999975  0.5676124241666685   F   F   F
  0.8980146749999989  0.0892201050000025  0.5990542425000029   F   F   F
  0.5874938122230660  0.6545679866641478  0.5938883938943675   T   T   T
  0.5811443298351477  0.1225318958815222  0.6032552323993201   T   T   T
  0.9158198800000008  0.8688089950000020  0.5650778841666693   F   F   F
  0.6024362395415750  0.4085949037494174  0.5580861125600904   T   T   T
  0.5963993308094118  0.8728105017080452  0.6241888441527834   T   T   T
  0.9022670949484421  0.5943560067289511  0.6115857745986446   T   T   T
  0.6159806450000005  0.6807036750000037  0.5346877641666694   F   F   F
  0.8969991503458346  0.3145969886434372  0.6319144216630264   T   T   T
  0.9009148199999970  0.1252464550000028  0.5423199491666679   F   F   F
 
  0.00000000E+00  0.00000000E+00  0.00000000E+00
  0.00000000E+00  0.00000000E+00  0.00000000E+00
  0.00000000E+00  0.00000000E+00  0.00000000E+00
  0.00000000E+00  0.00000000E+00  0.00000000E+00
  0.00000000E+00  0.00000000E+00  0.00000000E+00
  0.00000000E+00  0.00000000E+00  0.00000000E+00
  0.00000000E+00  0.00000000E+00  0.00000000E+00
  0.00000000E+00  0.00000000E+00  0.00000000E+00
  0.00000000E+00  0.00000000E+00  0.00000000E+00
  0.00000000E+00  0.00000000E+00  0.00000000E+00
  0.00000000E+00  0.00000000E+00  0.00000000E+00
  0.00000000E+00  0.00000000E+00  0.00000000E+00
  0.00000000E+00  0.00000000E+00  0.00000000E+00
  0.00000000E+00  0.00000000E+00  0.00000000E+00
  0.00000000E+00  0.00000000E+00  0.00000000E+00
  0.00000000E+00  0.00000000E+00  0.00000000E+00
  0.00000000E+00  0.00000000E+00  0.00000000E+00
  0.00000000E+00  0.00000000E+00  0.00000000E+00
  0.00000000E+00  0.00000000E+00  0.00000000E+00
  0.00000000E+00  0.00000000E+00  0.00000000E+00
  0.00000000E+00  0.00000000E+00  0.00000000E+00
  0.00000000E+00  0.00000000E+00  0.00000000E+00
  0.00000000E+00  0.00000000E+00  0.00000000E+00
  0.00000000E+00  0.00000000E+00  0.00000000E+00
  0.00000000E+00  0.00000000E+00  0.00000000E+00
  0.00000000E+00  0.00000000E+00  0.00000000E+00
  0.00000000E+00  0.00000000E+00  0.00000000E+00
  0.00000000E+00  0.00000000E+00  0.00000000E+00
  0.00000000E+00  0.00000000E+00  0.00000000E+00
  0.00000000E+00  0.00000000E+00  0.00000000E+00
  0.00000000E+00  0.00000000E+00  0.00000000E+00
  0.00000000E+00  0.00000000E+00  0.00000000E+00
  0.00000000E+00  0.00000000E+00  0.00000000E+00
  0.00000000E+00  0.00000000E+00  0.00000000E+00
  0.00000000E+00  0.00000000E+00  0.00000000E+00
  0.00000000E+00  0.00000000E+00  0.00000000E+00
  0.00000000E+00  0.00000000E+00  0.00000000E+00
  0.00000000E+00  0.00000000E+00  0.00000000E+00
  0.00000000E+00  0.00000000E+00  0.00000000E+00
  0.00000000E+00  0.00000000E+00  0.00000000E+00
  0.00000000E+00  0.00000000E+00  0.00000000E+00
  0.00000000E+00  0.00000000E+00  0.00000000E+00
  0.00000000E+00  0.00000000E+00  0.00000000E+00
  0.00000000E+00  0.00000000E+00  0.00000000E+00
  0.00000000E+00  0.00000000E+00  0.00000000E+00
  0.00000000E+00  0.00000000E+00  0.00000000E+00
  0.00000000E+00  0.00000000E+00  0.00000000E+00
  0.00000000E+00  0.00000000E+00  0.00000000E+00
  0.00000000E+00  0.00000000E+00  0.00000000E+00
  0.00000000E+00  0.00000000E+00  0.00000000E+00
  0.00000000E+00  0.00000000E+00  0.00000000E+00
  0.00000000E+00  0.00000000E+00  0.00000000E+00
  0.00000000E+00  0.00000000E+00  0.00000000E+00
  0.00000000E+00  0.00000000E+00  0.00000000E+00
  0.00000000E+00  0.00000000E+00  0.00000000E+00
  0.00000000E+00  0.00000000E+00  0.00000000E+00
  0.00000000E+00  0.00000000E+00  0.00000000E+00
  0.00000000E+00  0.00000000E+00  0.00000000E+00
  0.00000000E+00  0.00000000E+00  0.00000000E+00
  0.00000000E+00  0.00000000E+00  0.00000000E+00
  0.00000000E+00  0.00000000E+00  0.00000000E+00
  0.00000000E+00  0.00000000E+00  0.00000000E+00
  0.00000000E+00  0.00000000E+00  0.00000000E+00
  0.00000000E+00  0.00000000E+00  0.00000000E+00
