Rb Sb S
 1.0000000000000000
    13.2194173314844061    0.0000000000000000    3.4020833685027574
    -2.6159001194004001   11.9549387810215020   -4.4766740860332845
     0.0000000000000000    0.0000000000000000   40.6897654635237558
Rb Sb S
16 16 32
Selective dynamics
Cartesian
  2.2533208043059840 10.1189281542093781 17.1224859496969586   F   F   F
  1.7404877420358194  1.8360106268121243 14.0100195347909349   F   F   F
  0.7528533562728779  4.9834668600345529 17.7008172981627183   F   F   F
  3.2409551900689255  6.9714719209869491 13.4316881863251751   F   F   F
  4.4954975552738148  4.1673747995375141 16.3390234965478705   F   F   F
 -1.0343226632159139 10.8883178877101923 12.5840866602571069   F   F   F
  5.0281312095577171  1.0666208933113104 18.5484188242307901   F   F   F
 -0.5016890089320116  7.7875639814839888 14.7934819879400230   F   F   F
  0.7696295716506800  1.5683804333956874 17.3959673019642516   F   F   F
  3.2241789746911236 10.3865583476258152 13.7365381825236419   F   F   F
  0.2255663188304757  4.9004193672550427 14.3563405711419811   F   F   F
 -0.9784195570261718 10.4576250789565393 15.0440034421178161   F   F   F
  3.7682422275113279  7.0545194137664593 16.7761649133459123   F   F   F
 -0.2474562760790515  8.1377707626413596 12.3219794641862102   F   F   F
  4.2412648224208542  3.8171680183801433 18.8105260203016833   F   F   F
  4.9722281033679749  1.4973137020649627 16.0885020423700809   F   F   F
  2.2161121878198156 10.1065443266917541 23.6048821111254270   T   T   T
  1.7404877420358194  1.8360106268121243 20.7916471120448918   F   F   F
  1.0373372505129890  4.7783506203089408 24.5675999984465143   T   T   T
  3.2409551900689255  6.9714719209869491 20.2133157635791356   F   F   F
  4.6130781343146197  4.1166433792461010 23.2339715539608491   T   T   T
 -1.0343226632159139 10.8883178877101923 19.3657142375110638   F   F   F
  5.0281312095577171  1.0666208933113104 25.3300464014847471   F   F   F
 -0.5565965251595701  7.8245722579842623 21.5328523554053213   T   T   T
  0.7523580063729558  1.4645942274063788 24.2738300823747473   T   T   T
  3.2241789746911236 10.3865583476258152 20.5181657597776024   F   F   F
  0.2843504878444369  4.8840703703277795 21.2276817187667461   T   T   T
 -1.0092545045897341 10.4343241372649800 21.8192701266414701   T   T   T
  3.7631084868491964  7.1060092429977457 23.5932265174385023   T   T   T
 -0.2474562760790515  8.1377707626413596 19.1036070414401706   F   F   F
  4.4240041731909887  3.7608320594441826 25.6538140140672262   T   T   T
  4.9722281033679749  1.4973137020649627 22.8701296196240378   F   F   F
  8.8630294700481862 10.1189281542093781 18.8235276339483377   F   F   F
  8.3501964077780215  1.8360106268121243 15.7110612190423140   F   F   F
  7.3625620220150809  4.9834668600345529 19.4018589824140975   F   F   F
  9.8506638558111277  6.9714719209869491 15.1327298705765543   F   F   F
 11.1052062210160187  4.1673747995375141 18.0400651807992496   F   F   F
  5.5753860025262894 10.8883178877101923 14.2851283445084860   F   F   F
 11.6378398752999210  1.0666208933113104 20.2494605084821693   F   F   F
  6.1080196568101917  7.7875639814839888 16.4945236721914021   F   F   F
  7.3793382373928829  1.5683804333956874 19.0970089862156307   F   F   F
  9.8338876404333266 10.3865583476258152 15.4375798667750210   F   F   F
  6.8352749845726786  4.9004193672550427 16.0573822553933603   F   F   F
  5.6312891087160315 10.4576250789565393 16.7450451263691953   F   F   F
 10.3779508932535300  7.0545194137664593 18.4772065975972914   F   F   F
  6.3622523896631513  8.1377707626413596 14.0230211484375893   F   F   F
 10.8509734881630564  3.8171680183801433 20.5115677045530624   F   F   F
 11.5819367691101789  1.4973137020649627 17.7895437266214600   F   F   F
  8.8263632463125212 10.1053972542205415 25.3048549055803633   T   T   T
  8.3501964077780215  1.8360106268121243 22.4926887962962709   F   F   F
  7.6451764162225659  4.7767849675259120 26.2676835424132555   T   T   T
  9.8506638558111277  6.9714719209869491 21.9143574478305148   F   F   F
 11.2214905676023449  4.1157861367102431 24.9347329025502731   T   T   T
  5.5753860025262894 10.8883178877101923 21.0667559217624429   F   F   F
 11.6378398752999210  1.0666208933113104 27.0310880857361262   F   F   F
  6.0540414089710373  7.8253202085863522 23.2335948432865216   T   T   T
  7.3618582248498363  1.4648613139860760 25.9748800171982630   T   T   T
  9.8338876404333266 10.3865583476258152 22.2192074440289815   F   F   F
  6.8950126086056835  4.8847270605616613 22.9287851223472217   T   T   T
  5.6008665545556360 10.4343961153523423 23.5198097628434653   T   T   T
 10.3726693236208867  7.1054896745770320 25.2941314737161136   T   T   T
  6.3622523896631513  8.1377707626413596 20.8046487256915498   F   F   F
 11.0348518142531091  3.7609877399260219 27.3557673148351377   T   T   T
 11.5819367691101789  1.4973137020649627 24.5711713038754169   F   F   F
