Ta Te Cl O                              
   1.00000000000000     
     9.9111196088141611    0.0000000000000000   -0.6838774802203457
     4.3762242466317618   11.3243422398367120    1.7604012360617689
     0.0000000000000000    0.0000000000000000   33.1015516986559746
   Ta   Te   Cl   O 
     4     8    24     1
Selective dynamics
Direct
  0.6315069500000021  0.2022360400000025  0.5704341100000008   F   F   F
  0.1315069500000021  0.2022360400000025  0.4037674433333365   F   F   F
  0.8684930499999979  0.7977639599999975  0.4295658899999992   F   F   F
  0.3723801351211478  0.7985763943328124  0.5950174648196693   T   T   T
  0.3033825500000020  0.5047290300000000  0.4036097566666683   F   F   F
  0.8047125104690309  0.5098155917081684  0.5708391072158747   T   T   T
  0.2005398843535744  0.5167414677294957  0.6183727712777483   T   T   T
  0.6966174499999980  0.4952709700000000  0.4297235766666674   F   F   F
  0.0373701594571472  0.3031803385812140  0.5903082917419411   T   T   T
  0.5746582200000034  0.3363841500000007  0.4101280466666637   F   F   F
  0.4253417799999966  0.6636158499999993  0.4232052866666649   F   F   F
  0.9221549779416449  0.6664531786366865  0.5929459518868043   T   T   T
  0.7952092664074613  0.0156085736328109  0.6026303433869984   T   T   T
  0.2773662250000015  0.0134033100000011  0.4386661983333369   F   F   F
  0.7226337749999985  0.9865966899999989  0.3946671349999988   F   F   F
  0.2226337749999985  0.9865966899999989  0.5613338016666631   F   F   F
  0.8363075950000010  0.2370442499999967  0.5413746016666678   F   F   F
  0.3363075950000010  0.2370442499999967  0.3747079350000035   F   F   F
  0.6636924049999990  0.7629557500000033  0.4586253983333322   F   F   F
  0.1634617796448126  0.7680563430036997  0.6261549087646756   T   T   T
  0.1848020899999980  0.2860532199999994  0.4610809500000030   F   F   F
  0.6840637280299902  0.2840236744122180  0.6279128483068703   T   T   T
  0.3151979100000020  0.7139467800000006  0.5389190499999970   F   F   F
  0.8151979100000020  0.7139467800000006  0.3722523833333327   F   F   F
  0.0176370800000001  0.6010366499999975  0.4651769099999967   F   F   F
  0.5123093265713976  0.6054241135029130  0.6328461636996110   T   T   T
  0.4823629199999999  0.3989633500000025  0.5348230900000033   F   F   F
  0.9823629199999999  0.3989633500000025  0.3681564233333319   F   F   F
  0.9139125700000008  0.8738649900000013  0.4882154366666640   F   F   F
  0.4147452891016172  0.8752879864579626  0.6533362463706638   T   T   T
  0.5860874299999992  0.1261350099999987  0.5117845633333360   F   F   F
  0.0860874299999992  0.1261350099999987  0.3451178966666646   F   F   F
  0.0788843799999981  0.8134844699999988  0.4013438033333330   F   F   F
  0.5788843799999981  0.8134844699999988  0.5680104699999973   F   F   F
  0.4385018554295996  0.1715222540403474  0.5996296600777740   T   T   T
  0.9211156200000019  0.1865155300000012  0.4319895300000027   F   F   F
  0.1484500515052005  0.3746428180451034  0.6232773678644605   T   T   T
 
  0.00000000E+00  0.00000000E+00  0.00000000E+00
  0.00000000E+00  0.00000000E+00  0.00000000E+00
  0.00000000E+00  0.00000000E+00  0.00000000E+00
  0.00000000E+00  0.00000000E+00  0.00000000E+00
  0.00000000E+00  0.00000000E+00  0.00000000E+00
  0.00000000E+00  0.00000000E+00  0.00000000E+00
  0.00000000E+00  0.00000000E+00  0.00000000E+00
  0.00000000E+00  0.00000000E+00  0.00000000E+00
  0.00000000E+00  0.00000000E+00  0.00000000E+00
  0.00000000E+00  0.00000000E+00  0.00000000E+00
  0.00000000E+00  0.00000000E+00  0.00000000E+00
  0.00000000E+00  0.00000000E+00  0.00000000E+00
  0.00000000E+00  0.00000000E+00  0.00000000E+00
  0.00000000E+00  0.00000000E+00  0.00000000E+00
  0.00000000E+00  0.00000000E+00  0.00000000E+00
  0.00000000E+00  0.00000000E+00  0.00000000E+00
  0.00000000E+00  0.00000000E+00  0.00000000E+00
  0.00000000E+00  0.00000000E+00  0.00000000E+00
  0.00000000E+00  0.00000000E+00  0.00000000E+00
  0.00000000E+00  0.00000000E+00  0.00000000E+00
  0.00000000E+00  0.00000000E+00  0.00000000E+00
  0.00000000E+00  0.00000000E+00  0.00000000E+00
  0.00000000E+00  0.00000000E+00  0.00000000E+00
  0.00000000E+00  0.00000000E+00  0.00000000E+00
  0.00000000E+00  0.00000000E+00  0.00000000E+00
  0.00000000E+00  0.00000000E+00  0.00000000E+00
  0.00000000E+00  0.00000000E+00  0.00000000E+00
  0.00000000E+00  0.00000000E+00  0.00000000E+00
  0.00000000E+00  0.00000000E+00  0.00000000E+00
  0.00000000E+00  0.00000000E+00  0.00000000E+00
  0.00000000E+00  0.00000000E+00  0.00000000E+00
  0.00000000E+00  0.00000000E+00  0.00000000E+00
  0.00000000E+00  0.00000000E+00  0.00000000E+00
  0.00000000E+00  0.00000000E+00  0.00000000E+00
  0.00000000E+00  0.00000000E+00  0.00000000E+00
  0.00000000E+00  0.00000000E+00  0.00000000E+00
  0.00000000E+00  0.00000000E+00  0.00000000E+00
