Bi Pd Pb H O                            
   1.00000000000000     
    10.2339687200000000    0.0000000000000000    0.0000000000000006
    -0.0000000000000007   11.8021790400000004    0.0000000000000007
     0.0000000000000000    0.0000000000000000   38.4925125199999982
   Bi   Pd   Pb   H    O 
    12    48     4     1     1
Selective dynamics
Direct
  0.4239759752396495  0.2507882778420978  0.5934326827288388   T   T   T
  0.2501665200000005  0.0000000000000000  0.4061323087696778   F   F   F
  0.2501665200000005  0.0000000000000000  0.5313149837696827   F   F   F
  0.0003552000000013  0.3744362099999989  0.4065517487696795   F   F   F
  0.0003552000000013  0.3744362099999989  0.5308955437696810   F   F   F
  0.0003552000000013  0.1255637900000011  0.4065517487696795   F   F   F
  0.0003552000000013  0.1255637900000011  0.5308955437696810   F   F   F
  0.3343065150000015  0.3735034299999995  0.4687236462696802   F   F   F
  0.1745518952114509  0.3768002869970317  0.5917952108144888   T   T   T
  0.1641477383361263  0.1298211718234583  0.5912313332579728   T   T   T
  0.3343065150000015  0.1264965700000005  0.4687236462696802   F   F   F
  0.0769756400000006  0.0000000000000000  0.4687236462696802   F   F   F
  0.4223655524368368  0.0052188201046448  0.5935600581546225   T   T   T
  0.2494652950000003  0.2500000000000000  0.4063726537696795   F   F   F
  0.2494652950000003  0.2500000000000000  0.5310746387696810   F   F   F
  0.0805838850000029  0.2500000000000000  0.4687236462696802   F   F   F
  0.4307507473590562  0.7417069452261060  0.5935328299864366   T   T   T
  0.2501665200000005  0.5000000000000000  0.4061323087696778   F   F   F
  0.2501665200000005  0.5000000000000000  0.5313149837696827   F   F   F
  0.0003552000000013  0.8744362099999989  0.4065517487696795   F   F   F
  0.0003552000000013  0.8744362099999989  0.5308955437696810   F   F   F
  0.0003552000000013  0.6255637900000011  0.4065517487696795   F   F   F
  0.0003552000000013  0.6255637900000011  0.5308955437696810   F   F   F
  0.3343065150000015  0.8735034299999995  0.4687236462696802   F   F   F
  0.1636100679719092  0.8794495123180752  0.5929818051108882   T   T   T
  0.1756861771630369  0.6241369602588591  0.5914327280011875   T   T   T
  0.3343065150000015  0.6264965700000005  0.4687236462696802   F   F   F
  0.0769756400000006  0.5000000000000000  0.4687236462696802   F   F   F
  0.4306260523734835  0.4978466214480761  0.5926434399490219   T   T   T
  0.2494652950000003  0.7500000000000000  0.4063726537696795   F   F   F
  0.2494652950000003  0.7500000000000000  0.5310746387696810   F   F   F
  0.0805838850000029  0.7500000000000000  0.4687236462696802   F   F   F
  0.9214699797804258  0.2521569217641542  0.5941206342078615   T   T   T
  0.7501665200000005  0.0000000000000000  0.4061323087696778   F   F   F
  0.7501665200000005  0.0000000000000000  0.5313149837696827   F   F   F
  0.5003552000000013  0.3744362099999989  0.4065517487696795   F   F   F
  0.5003552000000013  0.3744362099999989  0.5308955437696810   F   F   F
  0.5003552000000013  0.1255637900000011  0.4065517487696795   F   F   F
  0.5003552000000013  0.1255637900000011  0.5308955437696810   F   F   F
  0.8343065150000015  0.3735034299999995  0.4687236462696802   F   F   F
  0.6743013920922252  0.3755715520268410  0.5918534199107341   T   T   T
  0.6712081413770932  0.1255511477803921  0.5916939455499630   T   T   T
  0.8343065150000015  0.1264965700000005  0.4687236462696802   F   F   F
  0.5769756400000006  0.0000000000000000  0.4687236462696802   F   F   F
  0.9195067745351508  0.0025968804940817  0.5917641391283510   T   T   T
  0.7494652950000003  0.2500000000000000  0.4063726537696795   F   F   F
  0.7494652950000003  0.2500000000000000  0.5310746387696810   F   F   F
  0.5805838850000029  0.2500000000000000  0.4687236462696802   F   F   F
  0.9243229457049509  0.7519944002479946  0.5936220656527027   T   T   T
  0.7501665200000005  0.5000000000000000  0.4061323087696778   F   F   F
  0.7501665200000005  0.5000000000000000  0.5313149837696827   F   F   F
  0.5003552000000013  0.8744362099999989  0.4065517487696795   F   F   F
  0.5003552000000013  0.8744362099999989  0.5308955437696810   F   F   F
  0.5003552000000013  0.6255637900000011  0.4065517487696795   F   F   F
  0.5003552000000013  0.6255637900000011  0.5308955437696810   F   F   F
  0.8343065150000015  0.8735034299999995  0.4687236462696802   F   F   F
  0.6694153899389548  0.8753353779788213  0.5917865319102731   T   T   T
  0.6761364822840079  0.6222139908414732  0.5917933539723705   T   T   T
  0.8343065150000015  0.6264965700000005  0.4687236462696802   F   F   F
  0.5769756400000006  0.5000000000000000  0.4687236462696802   F   F   F
  0.9325852565321213  0.4999356065877549  0.5923002252067064   T   T   T
  0.7494652950000003  0.7500000000000000  0.4063726537696795   F   F   F
  0.7494652950000003  0.7500000000000000  0.5310746387696810   F   F   F
  0.5805838850000029  0.7500000000000000  0.4687236462696802   F   F   F
  0.2614388582598295  0.9824199931375546  0.6501520536389265   T   T   T
  0.3014332885082069  0.9258012092832857  0.6350210856468053   T   T   T
 
  0.00000000E+00  0.00000000E+00  0.00000000E+00
  0.00000000E+00  0.00000000E+00  0.00000000E+00
  0.00000000E+00  0.00000000E+00  0.00000000E+00
  0.00000000E+00  0.00000000E+00  0.00000000E+00
  0.00000000E+00  0.00000000E+00  0.00000000E+00
  0.00000000E+00  0.00000000E+00  0.00000000E+00
  0.00000000E+00  0.00000000E+00  0.00000000E+00
  0.00000000E+00  0.00000000E+00  0.00000000E+00
  0.00000000E+00  0.00000000E+00  0.00000000E+00
  0.00000000E+00  0.00000000E+00  0.00000000E+00
  0.00000000E+00  0.00000000E+00  0.00000000E+00
  0.00000000E+00  0.00000000E+00  0.00000000E+00
  0.00000000E+00  0.00000000E+00  0.00000000E+00
  0.00000000E+00  0.00000000E+00  0.00000000E+00
  0.00000000E+00  0.00000000E+00  0.00000000E+00
  0.00000000E+00  0.00000000E+00  0.00000000E+00
  0.00000000E+00  0.00000000E+00  0.00000000E+00
  0.00000000E+00  0.00000000E+00  0.00000000E+00
  0.00000000E+00  0.00000000E+00  0.00000000E+00
  0.00000000E+00  0.00000000E+00  0.00000000E+00
  0.00000000E+00  0.00000000E+00  0.00000000E+00
  0.00000000E+00  0.00000000E+00  0.00000000E+00
  0.00000000E+00  0.00000000E+00  0.00000000E+00
  0.00000000E+00  0.00000000E+00  0.00000000E+00
  0.00000000E+00  0.00000000E+00  0.00000000E+00
  0.00000000E+00  0.00000000E+00  0.00000000E+00
  0.00000000E+00  0.00000000E+00  0.00000000E+00
  0.00000000E+00  0.00000000E+00  0.00000000E+00
  0.00000000E+00  0.00000000E+00  0.00000000E+00
  0.00000000E+00  0.00000000E+00  0.00000000E+00
  0.00000000E+00  0.00000000E+00  0.00000000E+00
  0.00000000E+00  0.00000000E+00  0.00000000E+00
  0.00000000E+00  0.00000000E+00  0.00000000E+00
  0.00000000E+00  0.00000000E+00  0.00000000E+00
  0.00000000E+00  0.00000000E+00  0.00000000E+00
  0.00000000E+00  0.00000000E+00  0.00000000E+00
  0.00000000E+00  0.00000000E+00  0.00000000E+00
  0.00000000E+00  0.00000000E+00  0.00000000E+00
  0.00000000E+00  0.00000000E+00  0.00000000E+00
  0.00000000E+00  0.00000000E+00  0.00000000E+00
  0.00000000E+00  0.00000000E+00  0.00000000E+00
  0.00000000E+00  0.00000000E+00  0.00000000E+00
  0.00000000E+00  0.00000000E+00  0.00000000E+00
  0.00000000E+00  0.00000000E+00  0.00000000E+00
  0.00000000E+00  0.00000000E+00  0.00000000E+00
  0.00000000E+00  0.00000000E+00  0.00000000E+00
  0.00000000E+00  0.00000000E+00  0.00000000E+00
  0.00000000E+00  0.00000000E+00  0.00000000E+00
  0.00000000E+00  0.00000000E+00  0.00000000E+00
  0.00000000E+00  0.00000000E+00  0.00000000E+00
  0.00000000E+00  0.00000000E+00  0.00000000E+00
  0.00000000E+00  0.00000000E+00  0.00000000E+00
  0.00000000E+00  0.00000000E+00  0.00000000E+00
  0.00000000E+00  0.00000000E+00  0.00000000E+00
  0.00000000E+00  0.00000000E+00  0.00000000E+00
  0.00000000E+00  0.00000000E+00  0.00000000E+00
  0.00000000E+00  0.00000000E+00  0.00000000E+00
  0.00000000E+00  0.00000000E+00  0.00000000E+00
  0.00000000E+00  0.00000000E+00  0.00000000E+00
  0.00000000E+00  0.00000000E+00  0.00000000E+00
  0.00000000E+00  0.00000000E+00  0.00000000E+00
  0.00000000E+00  0.00000000E+00  0.00000000E+00
  0.00000000E+00  0.00000000E+00  0.00000000E+00
  0.00000000E+00  0.00000000E+00  0.00000000E+00
  0.00000000E+00  0.00000000E+00  0.00000000E+00
  0.00000000E+00  0.00000000E+00  0.00000000E+00
