Ag Te                                   
   1.00000000000000     
     9.7061987978304263    0.0000000000000000    0.0000000000000006
    -4.7967556401228650    6.9464870236410938    0.0000000000000005
     0.0000000000000000    0.0000000000000000   39.0961864800002274
   Ag   Te
    16     8
Selective dynamics
Direct
  0.1659106299999991  0.6672079699999998  0.5311769925000007   F   F   F
  0.1659106299999991  0.1672079699999998  0.4688230074999993   F   F   F
  0.3764399350000005  0.2440301999999974  0.5317360800000017   F   F   F
  0.1263206799999992  0.7493386199999961  0.4061782100000002   F   F   F
  0.3764399350000005  0.7440301999999974  0.4682639199999983   F   F   F
  0.1888784488546662  0.3250562847608549  0.5784638198788343   T   T   T
  0.3767218549999996  0.2499867399999971  0.4058968000000007   F   F   F
  0.4620762632961402  0.7408245664350446  0.5765753005992238   T   T   T
  0.0006896900000015  0.0059130100000004  0.5325161100000031   F   F   F
  0.0006896900000015  0.5059130100000004  0.4674838899999969   F   F   F
  0.4955672099999973  0.0002234700000017  0.4050921474999996   F   F   F
  0.5168042753874786  0.4827882971737552  0.6004764318531812   T   T   T
  0.6659106299999991  0.6672079699999998  0.5311769925000007   F   F   F
  0.6659106299999991  0.1672079699999998  0.4688230074999993   F   F   F
  0.8764399350000005  0.2440301999999974  0.5317360800000017   F   F   F
  0.6263206799999992  0.7493386199999961  0.4061782100000002   F   F   F
  0.8764399350000005  0.7440301999999974  0.4682639199999983   F   F   F
  0.6890455853916819  0.3257007136299421  0.5783263384518733   T   T   T
  0.8767218549999996  0.2499867399999971  0.4058968000000007   F   F   F
  0.9623540668680235  0.7405583792417616  0.5765599197392106   T   T   T
  0.5006896900000015  0.0059130100000004  0.5325161100000031   F   F   F
  0.5006896900000015  0.5059130100000004  0.4674838899999969   F   F   F
  0.9955672099999973  0.0002234700000017  0.4050921474999996   F   F   F
  0.0161028723278136  0.4820755406399897  0.6005227695240620   T   T   T
 
  0.00000000E+00  0.00000000E+00  0.00000000E+00
  0.00000000E+00  0.00000000E+00  0.00000000E+00
  0.00000000E+00  0.00000000E+00  0.00000000E+00
  0.00000000E+00  0.00000000E+00  0.00000000E+00
  0.00000000E+00  0.00000000E+00  0.00000000E+00
  0.00000000E+00  0.00000000E+00  0.00000000E+00
  0.00000000E+00  0.00000000E+00  0.00000000E+00
  0.00000000E+00  0.00000000E+00  0.00000000E+00
  0.00000000E+00  0.00000000E+00  0.00000000E+00
  0.00000000E+00  0.00000000E+00  0.00000000E+00
  0.00000000E+00  0.00000000E+00  0.00000000E+00
  0.00000000E+00  0.00000000E+00  0.00000000E+00
  0.00000000E+00  0.00000000E+00  0.00000000E+00
  0.00000000E+00  0.00000000E+00  0.00000000E+00
  0.00000000E+00  0.00000000E+00  0.00000000E+00
  0.00000000E+00  0.00000000E+00  0.00000000E+00
  0.00000000E+00  0.00000000E+00  0.00000000E+00
  0.00000000E+00  0.00000000E+00  0.00000000E+00
  0.00000000E+00  0.00000000E+00  0.00000000E+00
  0.00000000E+00  0.00000000E+00  0.00000000E+00
  0.00000000E+00  0.00000000E+00  0.00000000E+00
  0.00000000E+00  0.00000000E+00  0.00000000E+00
  0.00000000E+00  0.00000000E+00  0.00000000E+00
  0.00000000E+00  0.00000000E+00  0.00000000E+00
