Ag Te
 1.0000000000000000
     9.7061987978304263    0.0000000000000000    0.0000000000000006
    -4.7967556401228650    6.9464870236410938    0.0000000000000005
     0.0000000000000000    0.0000000000000000   39.0961864800002274
Ag Te
16 8
Selective dynamics
Cartesian
 -1.5900720357791396  4.6347515056749202 20.7669947526656848   F   F   F
  0.8083057842822928  1.1615079938543722 18.3291917273345462   F   F   F
  2.4832476063420525  1.6951526176765401 20.7888529418243166   F   F   F
 -2.3683006194897605  5.2052710001431208 15.8800190422726928   F   F   F
  0.0848697862806209  5.1683961294970873 18.3073335381759108   F   F   F
  0.2740762059252160  2.2579992640442734 22.6157293739160821   T   T   T
  2.4574119110665231  1.7365296454923325 15.8690169844353566   F   F   F
  0.9314496539221033  5.1461282375355912 22.5418954719894664   T   T   T
 -0.0216689958187281  0.0410746472356615 20.8193491401643129   F   F   F
 -2.4200468158801605  3.5143181590562085 18.2768373398359145   F   F   F
  4.8090019269632815  0.0015523314551692 15.8375581402437557   F   F   F
  2.7003875490260891  3.3536826414832479 23.4763385565771756   T   T   T
  3.2630273631360733  4.6347515056749202 20.7669947526656848   F   F   F
  5.6614051831975063  1.1615079938543722 18.3291917273345462   F   F   F
  7.3363470052572657  1.6951526176765401 20.7888529418243166   F   F   F
  2.4847987794254527  5.2052710001431208 15.8800190422726928   F   F   F
  4.9379691851958345  5.1683961294970873 18.3073335381759108   F   F   F
  5.1257066974826540  2.2624757808210498 22.6103543744102069   T   T   T
  7.3105113099817363  1.7365296454923325 15.8690169844353566   F   F   F
  5.7885223044534335  5.1442791716515748 22.5412941390182660   T   T   T
  4.8314304030964852  0.0410746472356615 20.8193491401643129   F   F   F
  2.4330525830350527  3.5143181590562085 18.2768373398359145   F   F   F
  9.6621013258784956  0.0015523314551692 15.8375581402437557   F   F   F
  7.5500979093300984  3.3487314874704328 23.4781501827989274   T   T   T
