K Se H O                                
   1.00000000000000     
    11.2360082381183783    0.0000000000000000    0.0000000000000007
    -5.6180041190591918    9.7306685713417451    0.0000000000000007
     0.0000000000000000    0.0000000000000000   41.2837303936473816
   K    Se   H    O 
    24    12     1     1
Selective dynamics
Direct
  0.3333333333333357  0.1666666666666643  0.4166666666666643   F   F   F
  0.5000000000000000  0.5000000000000000  0.5277777777777786   F   F   F
  0.1688280437658420  0.3328634656057901  0.6362885002770682   T   T   T
  0.1666666666666643  0.3333333333333357  0.4722222222222214   F   F   F
  0.3333333333333357  0.1666666666666643  0.5833333333333357   F   F   F
  0.5000000000000000  0.5000000000000000  0.3611111111111143   F   F   F
  0.4964907138022170  0.4985185777814465  0.6090838437370181   T   T   T
  0.1666666666666643  0.3333333333333357  0.3888888888888857   F   F   F
  0.3333333333333357  0.1666666666666643  0.5000000000000000   F   F   F
  0.3333333333333357  0.6666666666666643  0.4166666666666643   F   F   F
  0.5000000000000000  0.0000000000000000  0.5277777777777786   F   F   F
  0.0907802053816980  0.7940764255713972  0.6508513370519537   T   T   T
  0.1666666666666643  0.8333333333333357  0.4722222222222214   F   F   F
  0.3333333333333357  0.6666666666666643  0.5833333333333357   F   F   F
  0.5000000000000000  0.0000000000000000  0.3611111111111143   F   F   F
  0.5000745373102831  0.9999416025280397  0.6112478075835597   T   T   T
  0.1666666666666643  0.8333333333333357  0.3888888888888857   F   F   F
  0.3333333333333357  0.6666666666666643  0.5000000000000000   F   F   F
  0.8333333333333357  0.1666666666666643  0.4166666666666643   F   F   F
  0.0000000000000000  0.5000000000000000  0.5277777777777786   F   F   F
  0.7078186384268434  0.4124014492749950  0.6516069005808660   T   T   T
  0.6666666666666643  0.3333333333333357  0.4722222222222214   F   F   F
  0.8333333333333357  0.1666666666666643  0.5833333333333357   F   F   F
  0.0000000000000000  0.5000000000000000  0.3611111111111143   F   F   F
  0.0035824275236749  0.4959007361586387  0.6091624011204217   T   T   T
  0.6666666666666643  0.3333333333333357  0.3888888888888857   F   F   F
  0.8333333333333357  0.1666666666666643  0.5000000000000000   F   F   F
  0.8333333333333357  0.6666666666666643  0.4166666666666643   F   F   F
  0.0000000000000000  0.0000000000000000  0.5277777777777786   F   F   F
  0.7062324615098845  0.7943947370620776  0.6520257880742690   T   T   T
  0.6666666666666643  0.8333333333333357  0.4722222222222214   F   F   F
  0.8333333333333357  0.6666666666666643  0.5833333333333357   F   F   F
  0.0000000000000000  0.0000000000000000  0.3611111111111143   F   F   F
  0.0035743031567108  0.0069131783552976  0.6091971611943734   T   T   T
  0.6666666666666643  0.8333333333333357  0.3888888888888857   F   F   F
  0.8333333333333357  0.6666666666666643  0.5000000000000000   F   F   F
  0.8328815014733308  0.6673102126462638  0.7015193361754086   T   T   T
  0.8355608950604108  0.6662596955470690  0.6779349960066057   T   T   T
 
  0.00000000E+00  0.00000000E+00  0.00000000E+00
  0.00000000E+00  0.00000000E+00  0.00000000E+00
  0.00000000E+00  0.00000000E+00  0.00000000E+00
  0.00000000E+00  0.00000000E+00  0.00000000E+00
  0.00000000E+00  0.00000000E+00  0.00000000E+00
  0.00000000E+00  0.00000000E+00  0.00000000E+00
  0.00000000E+00  0.00000000E+00  0.00000000E+00
  0.00000000E+00  0.00000000E+00  0.00000000E+00
  0.00000000E+00  0.00000000E+00  0.00000000E+00
  0.00000000E+00  0.00000000E+00  0.00000000E+00
  0.00000000E+00  0.00000000E+00  0.00000000E+00
  0.00000000E+00  0.00000000E+00  0.00000000E+00
  0.00000000E+00  0.00000000E+00  0.00000000E+00
  0.00000000E+00  0.00000000E+00  0.00000000E+00
  0.00000000E+00  0.00000000E+00  0.00000000E+00
  0.00000000E+00  0.00000000E+00  0.00000000E+00
  0.00000000E+00  0.00000000E+00  0.00000000E+00
  0.00000000E+00  0.00000000E+00  0.00000000E+00
  0.00000000E+00  0.00000000E+00  0.00000000E+00
  0.00000000E+00  0.00000000E+00  0.00000000E+00
  0.00000000E+00  0.00000000E+00  0.00000000E+00
  0.00000000E+00  0.00000000E+00  0.00000000E+00
  0.00000000E+00  0.00000000E+00  0.00000000E+00
  0.00000000E+00  0.00000000E+00  0.00000000E+00
  0.00000000E+00  0.00000000E+00  0.00000000E+00
  0.00000000E+00  0.00000000E+00  0.00000000E+00
  0.00000000E+00  0.00000000E+00  0.00000000E+00
  0.00000000E+00  0.00000000E+00  0.00000000E+00
  0.00000000E+00  0.00000000E+00  0.00000000E+00
  0.00000000E+00  0.00000000E+00  0.00000000E+00
  0.00000000E+00  0.00000000E+00  0.00000000E+00
  0.00000000E+00  0.00000000E+00  0.00000000E+00
  0.00000000E+00  0.00000000E+00  0.00000000E+00
  0.00000000E+00  0.00000000E+00  0.00000000E+00
  0.00000000E+00  0.00000000E+00  0.00000000E+00
  0.00000000E+00  0.00000000E+00  0.00000000E+00
  0.00000000E+00  0.00000000E+00  0.00000000E+00
  0.00000000E+00  0.00000000E+00  0.00000000E+00
