K Se H O
 1.0000000000000000
    11.2360082381183783    0.0000000000000000    0.0000000000000007
    -5.6180041190591918    9.7306685713417451    0.0000000000000007
     0.0000000000000000    0.0000000000000000   41.2837303936473816
K Se H O
24 12 1 1
Selective dynamics
Cartesian
  2.8090020595295924  1.6217780952236196 17.2015543306864060   F   F   F
  2.8090020595295941  4.8653342856708690 21.7886354855361191   F   F   F
  0.0269249697207650  3.2389840633181324 26.2683628980168216   T   T   T
 -0.0000000000000029  3.2435561904472454 19.4950949081112661   F   F   F
  2.8090020595295955  1.6217780952236205 24.0821760629609791   F   F   F
  2.8090020595295946  4.8653342856708655 14.9080137532615566   F   F   F
  2.7778943270273153  4.8509190570479008 25.1452531919656437   T   T   T
 -0.0000000000000040  3.2435561904472485 16.0547840419739849   F   F   F
  2.8090020595295946  1.6217780952236196 20.6418651968236908   F   F   F
 -0.0000000000000036  6.4871123808944926 17.2015543306864060   F   F   F
 -0.0000000000000018  9.7306685713417416 21.7886354855361191   F   F   F
 -3.4411174941810936  7.7268945175509813 26.8695711251977265   T   T   T
 -2.8090020595295986  8.1088904761181180 19.4950949081112661   F   F   F
 -0.0000000000000004  6.4871123808944926 24.0821760629609791   F   F   F
 -0.0000000000000013  9.7306685713417380 14.9080137532615566   F   F   F
  0.0011655790703999  9.7301003248966822 25.2345896919876438   T   T   T
 -2.8090020595295999  8.1088904761181215 16.0547840419739849   F   F   F
 -0.0000000000000013  6.4871123808944926 20.6418651968236908   F   F   F
  8.4270061785887815  1.6217780952236196 17.2015543306864060   F   F   F
  8.4270061785887833  4.8653342856708690 21.7886354855361191   F   F   F
  5.6361830117248610  4.0129418212359882 26.9007636062207531   T   T   T
  5.6180041190591865  3.2435561904472454 19.4950949081112661   F   F   F
  8.4270061785887851  1.6217780952236205 24.0821760629609791   F   F   F
  8.4270061785887833  4.8653342856708655 14.9080137532615566   F   F   F
  8.4902880449031386  4.8254457078440796 25.1484963338023633   T   T   T
  5.6180041190591847  3.2435561904472485 16.0547840419739849   F   F   F
  8.4270061785887833  1.6217780952236196 20.6418651968236908   F   F   F
  5.6180041190591856  6.4871123808944926 17.2015543306864060   F   F   F
  5.6180041190591874  9.7306685713417416 21.7886354855361191   F   F   F
  3.4723208505779599  7.7299919011692779 26.9180568445637256   T   T   T
  2.8090020595295906  8.1088904761181180 19.4950949081112661   F   F   F
  5.6180041190591883  6.4871123808944926 24.0821760629609791   F   F   F
  5.6180041190591883  9.7306685713417380 14.9080137532615566   F   F   F
  5.6193267542976528  9.7979384186917002 25.1499313593238227   T   T   T
  2.8090020595295893  8.1088904761181215 16.0547840419739849   F   F   F
  5.6180041190591883  6.4871123808944926 20.6418651968236908   F   F   F
  5.6093118885937949  6.4933745135323440 28.9613351405959207   T   T   T
  5.6453193864017850  6.4831522798115966 27.9876855995552205   T   T   T
