Ni Te O                                 
   1.00000000000000     
    12.9312780400000005    0.0000000000000000    0.0000000000000008
    -0.0000000000000008   12.9312780400000005    0.0000000000000008
     0.0000000000000000    0.0000000000000000   38.7938341199999996
   Ni   Te   O 
    32    64     1
Selective dynamics
Direct
  0.2500000000000000  0.0000000000000000  0.3750000000000000   F   F   F
  0.0000000000000000  0.2500000000000000  0.3750000000000000   F   F   F
  0.2500000000000000  0.2500000000000000  0.4583333333333357   F   F   F
  0.0000000000000000  0.0000000000000000  0.4583333333333357   F   F   F
  0.0687851349999988  0.3187851349999988  0.4812617116666686   F   F   F
  0.3187851349999988  0.4312148650000012  0.4354049550000028   F   F   F
  0.4312148650000012  0.0687851349999988  0.3520716216666671   F   F   F
  0.1812148650000012  0.1812148650000012  0.3979283783333329   F   F   F
  0.4312148650000012  0.1812148650000012  0.4354049550000028   F   F   F
  0.1812148650000012  0.0687851349999988  0.4812617116666686   F   F   F
  0.0687851349999988  0.4312148650000012  0.3979283783333329   F   F   F
  0.3187851349999988  0.3187851349999988  0.3520716216666671   F   F   F
  0.2500000000000000  0.0000000000000000  0.5416666666666643   F   F   F
  0.0000000000000000  0.2500000000000000  0.5416666666666643   F   F   F
  0.2512974593960493  0.2491875470742286  0.6223894225485154   T   T   T
  0.0110345185019654  0.0065940536739646  0.6231261829710206   T   T   T
  0.0903122159045751  0.3188401657233086  0.6515932524235026   T   T   T
  0.3189288464244271  0.4388541901963237  0.6084761626241431   T   T   T
  0.4312148650000012  0.0687851349999988  0.5187382883333314   F   F   F
  0.1812148650000012  0.1812148650000012  0.5645950449999972   F   F   F
  0.4377682364928219  0.1868730234924527  0.6082842430392219   T   T   T
  0.1772643578380624  0.0856380505010748  0.6554317813947605   T   T   T
  0.0687851349999988  0.4312148650000012  0.5645950449999972   F   F   F
  0.3187851349999988  0.3187851349999988  0.5187382883333314   F   F   F
  0.2500000000000000  0.5000000000000000  0.3750000000000000   F   F   F
  0.0000000000000000  0.7500000000000000  0.3750000000000000   F   F   F
  0.2500000000000000  0.7500000000000000  0.4583333333333357   F   F   F
  0.0000000000000000  0.5000000000000000  0.4583333333333357   F   F   F
  0.0687851349999988  0.8187851349999988  0.4812617116666686   F   F   F
  0.3187851349999988  0.9312148650000012  0.4354049550000028   F   F   F
  0.4312148650000012  0.5687851349999988  0.3520716216666671   F   F   F
  0.1812148650000012  0.6812148650000012  0.3979283783333329   F   F   F
  0.4312148650000012  0.6812148650000012  0.4354049550000028   F   F   F
  0.1812148650000012  0.5687851349999988  0.4812617116666686   F   F   F
  0.0687851349999988  0.9312148650000012  0.3979283783333329   F   F   F
  0.3187851349999988  0.8187851349999988  0.3520716216666671   F   F   F
  0.2500000000000000  0.5000000000000000  0.5416666666666643   F   F   F
  0.0000000000000000  0.7500000000000000  0.5416666666666643   F   F   F
  0.2439689584569749  0.7514977112278700  0.6228658470621156   T   T   T
  0.0029302831535460  0.5136592443938284  0.6195406399484540   T   T   T
  0.0755074408712204  0.8313427292073854  0.6484904049568812   T   T   T
  0.3166439238684120  0.9393344155112402  0.6090008664580964   T   T   T
  0.4312148650000012  0.5687851349999988  0.5187382883333314   F   F   F
  0.1812148650000012  0.6812148650000012  0.5645950449999972   F   F   F
  0.4336844520459948  0.6884934105477285  0.6101051261612795   T   T   T
  0.1725809093662463  0.5739440630385033  0.6476171667524397   T   T   T
  0.0687851349999988  0.9312148650000012  0.5645950449999972   F   F   F
  0.3187851349999988  0.8187851349999988  0.5187382883333314   F   F   F
  0.7500000000000000  0.0000000000000000  0.3750000000000000   F   F   F
  0.5000000000000000  0.2500000000000000  0.3750000000000000   F   F   F
  0.7500000000000000  0.2500000000000000  0.4583333333333357   F   F   F
  0.5000000000000000  0.0000000000000000  0.4583333333333357   F   F   F
  0.5687851349999988  0.3187851349999988  0.4812617116666686   F   F   F
  0.8187851349999988  0.4312148650000012  0.4354049550000028   F   F   F
  0.9312148650000012  0.0687851349999988  0.3520716216666671   F   F   F
  0.6812148650000012  0.1812148650000012  0.3979283783333329   F   F   F
  0.9312148650000012  0.1812148650000012  0.4354049550000028   F   F   F
  0.6812148650000012  0.0687851349999988  0.4812617116666686   F   F   F
  0.5687851349999988  0.4312148650000012  0.3979283783333329   F   F   F
  0.8187851349999988  0.3187851349999988  0.3520716216666671   F   F   F
  0.7500000000000000  0.0000000000000000  0.5416666666666643   F   F   F
  0.5000000000000000  0.2500000000000000  0.5416666666666643   F   F   F
  0.7444326375890569  0.2509636982090839  0.6226141379243444   T   T   T
  0.5076284377107498  0.0010222119024732  0.6229605302930992   T   T   T
  0.5734748798802443  0.3247147183225181  0.6489916025340392   T   T   T
  0.8190924093517751  0.4399630914906112  0.6092501309424279   T   T   T
  0.9312148650000012  0.0687851349999988  0.5187382883333314   F   F   F
  0.6812148650000012  0.1812148650000012  0.5645950449999972   F   F   F
  0.9355384574274339  0.1891663953669891  0.6073175129503525   T   T   T
  0.6799732215319949  0.0756311835322876  0.6494863214868332   T   T   T
  0.5687851349999988  0.4312148650000012  0.5645950449999972   F   F   F
  0.8187851349999988  0.3187851349999988  0.5187382883333314   F   F   F
  0.7500000000000000  0.5000000000000000  0.3750000000000000   F   F   F
  0.5000000000000000  0.7500000000000000  0.3750000000000000   F   F   F
  0.7500000000000000  0.7500000000000000  0.4583333333333357   F   F   F
  0.5000000000000000  0.5000000000000000  0.4583333333333357   F   F   F
  0.5687851349999988  0.8187851349999988  0.4812617116666686   F   F   F
  0.8187851349999988  0.9312148650000012  0.4354049550000028   F   F   F
  0.9312148650000012  0.5687851349999988  0.3520716216666671   F   F   F
  0.6812148650000012  0.6812148650000012  0.3979283783333329   F   F   F
  0.9312148650000012  0.6812148650000012  0.4354049550000028   F   F   F
  0.6812148650000012  0.5687851349999988  0.4812617116666686   F   F   F
  0.5687851349999988  0.9312148650000012  0.3979283783333329   F   F   F
  0.8187851349999988  0.8187851349999988  0.3520716216666671   F   F   F
  0.7500000000000000  0.5000000000000000  0.5416666666666643   F   F   F
  0.5000000000000000  0.7500000000000000  0.5416666666666643   F   F   F
  0.7423224871060086  0.7531697948995131  0.6233696458076778   T   T   T
  0.5092243725660737  0.5013887596061508  0.6233441491212162   T   T   T
  0.5709746035299190  0.8257091903238987  0.6491823193404826   T   T   T
  0.8178445542409136  0.9402251689839574  0.6103628609993024   T   T   T
  0.9312148650000012  0.5687851349999988  0.5187382883333314   F   F   F
  0.6812148650000012  0.6812148650000012  0.5645950449999972   F   F   F
  0.9310455464352714  0.6964674350377464  0.6099183799849541   T   T   T
  0.6808018105125271  0.5753492210245099  0.6490562953566368   T   T   T
  0.5687851349999988  0.9312148650000012  0.5645950449999972   F   F   F
  0.8187851349999988  0.8187851349999988  0.5187382883333314   F   F   F
  0.0860099462166346  0.1961172586712294  0.6833619339010681   T   T   T
 
  0.00000000E+00  0.00000000E+00  0.00000000E+00
  0.00000000E+00  0.00000000E+00  0.00000000E+00
  0.00000000E+00  0.00000000E+00  0.00000000E+00
  0.00000000E+00  0.00000000E+00  0.00000000E+00
  0.00000000E+00  0.00000000E+00  0.00000000E+00
  0.00000000E+00  0.00000000E+00  0.00000000E+00
  0.00000000E+00  0.00000000E+00  0.00000000E+00
  0.00000000E+00  0.00000000E+00  0.00000000E+00
  0.00000000E+00  0.00000000E+00  0.00000000E+00
  0.00000000E+00  0.00000000E+00  0.00000000E+00
  0.00000000E+00  0.00000000E+00  0.00000000E+00
  0.00000000E+00  0.00000000E+00  0.00000000E+00
  0.00000000E+00  0.00000000E+00  0.00000000E+00
  0.00000000E+00  0.00000000E+00  0.00000000E+00
  0.00000000E+00  0.00000000E+00  0.00000000E+00
  0.00000000E+00  0.00000000E+00  0.00000000E+00
  0.00000000E+00  0.00000000E+00  0.00000000E+00
  0.00000000E+00  0.00000000E+00  0.00000000E+00
  0.00000000E+00  0.00000000E+00  0.00000000E+00
  0.00000000E+00  0.00000000E+00  0.00000000E+00
  0.00000000E+00  0.00000000E+00  0.00000000E+00
  0.00000000E+00  0.00000000E+00  0.00000000E+00
  0.00000000E+00  0.00000000E+00  0.00000000E+00
  0.00000000E+00  0.00000000E+00  0.00000000E+00
  0.00000000E+00  0.00000000E+00  0.00000000E+00
  0.00000000E+00  0.00000000E+00  0.00000000E+00
  0.00000000E+00  0.00000000E+00  0.00000000E+00
  0.00000000E+00  0.00000000E+00  0.00000000E+00
  0.00000000E+00  0.00000000E+00  0.00000000E+00
  0.00000000E+00  0.00000000E+00  0.00000000E+00
  0.00000000E+00  0.00000000E+00  0.00000000E+00
  0.00000000E+00  0.00000000E+00  0.00000000E+00
  0.00000000E+00  0.00000000E+00  0.00000000E+00
  0.00000000E+00  0.00000000E+00  0.00000000E+00
  0.00000000E+00  0.00000000E+00  0.00000000E+00
  0.00000000E+00  0.00000000E+00  0.00000000E+00
  0.00000000E+00  0.00000000E+00  0.00000000E+00
  0.00000000E+00  0.00000000E+00  0.00000000E+00
  0.00000000E+00  0.00000000E+00  0.00000000E+00
  0.00000000E+00  0.00000000E+00  0.00000000E+00
  0.00000000E+00  0.00000000E+00  0.00000000E+00
  0.00000000E+00  0.00000000E+00  0.00000000E+00
  0.00000000E+00  0.00000000E+00  0.00000000E+00
  0.00000000E+00  0.00000000E+00  0.00000000E+00
  0.00000000E+00  0.00000000E+00  0.00000000E+00
  0.00000000E+00  0.00000000E+00  0.00000000E+00
  0.00000000E+00  0.00000000E+00  0.00000000E+00
  0.00000000E+00  0.00000000E+00  0.00000000E+00
  0.00000000E+00  0.00000000E+00  0.00000000E+00
  0.00000000E+00  0.00000000E+00  0.00000000E+00
  0.00000000E+00  0.00000000E+00  0.00000000E+00
  0.00000000E+00  0.00000000E+00  0.00000000E+00
  0.00000000E+00  0.00000000E+00  0.00000000E+00
  0.00000000E+00  0.00000000E+00  0.00000000E+00
  0.00000000E+00  0.00000000E+00  0.00000000E+00
  0.00000000E+00  0.00000000E+00  0.00000000E+00
  0.00000000E+00  0.00000000E+00  0.00000000E+00
  0.00000000E+00  0.00000000E+00  0.00000000E+00
  0.00000000E+00  0.00000000E+00  0.00000000E+00
  0.00000000E+00  0.00000000E+00  0.00000000E+00
  0.00000000E+00  0.00000000E+00  0.00000000E+00
  0.00000000E+00  0.00000000E+00  0.00000000E+00
  0.00000000E+00  0.00000000E+00  0.00000000E+00
  0.00000000E+00  0.00000000E+00  0.00000000E+00
  0.00000000E+00  0.00000000E+00  0.00000000E+00
  0.00000000E+00  0.00000000E+00  0.00000000E+00
  0.00000000E+00  0.00000000E+00  0.00000000E+00
  0.00000000E+00  0.00000000E+00  0.00000000E+00
  0.00000000E+00  0.00000000E+00  0.00000000E+00
  0.00000000E+00  0.00000000E+00  0.00000000E+00
  0.00000000E+00  0.00000000E+00  0.00000000E+00
  0.00000000E+00  0.00000000E+00  0.00000000E+00
  0.00000000E+00  0.00000000E+00  0.00000000E+00
  0.00000000E+00  0.00000000E+00  0.00000000E+00
  0.00000000E+00  0.00000000E+00  0.00000000E+00
  0.00000000E+00  0.00000000E+00  0.00000000E+00
  0.00000000E+00  0.00000000E+00  0.00000000E+00
  0.00000000E+00  0.00000000E+00  0.00000000E+00
  0.00000000E+00  0.00000000E+00  0.00000000E+00
  0.00000000E+00  0.00000000E+00  0.00000000E+00
  0.00000000E+00  0.00000000E+00  0.00000000E+00
  0.00000000E+00  0.00000000E+00  0.00000000E+00
  0.00000000E+00  0.00000000E+00  0.00000000E+00
  0.00000000E+00  0.00000000E+00  0.00000000E+00
  0.00000000E+00  0.00000000E+00  0.00000000E+00
  0.00000000E+00  0.00000000E+00  0.00000000E+00
  0.00000000E+00  0.00000000E+00  0.00000000E+00
  0.00000000E+00  0.00000000E+00  0.00000000E+00
  0.00000000E+00  0.00000000E+00  0.00000000E+00
  0.00000000E+00  0.00000000E+00  0.00000000E+00
  0.00000000E+00  0.00000000E+00  0.00000000E+00
  0.00000000E+00  0.00000000E+00  0.00000000E+00
  0.00000000E+00  0.00000000E+00  0.00000000E+00
  0.00000000E+00  0.00000000E+00  0.00000000E+00
  0.00000000E+00  0.00000000E+00  0.00000000E+00
  0.00000000E+00  0.00000000E+00  0.00000000E+00
  0.00000000E+00  0.00000000E+00  0.00000000E+00
