Ni Te O
 1.0000000000000000
    12.9312780400000005    0.0000000000000000    0.0000000000000008
    -0.0000000000000008   12.9312780400000005    0.0000000000000008
     0.0000000000000000    0.0000000000000000   38.7938341199999996
Ni Te O
32 64 1
Selective dynamics
Cartesian
  3.2328195100000001  0.0000000000000000 14.5476877950000016   F   F   F
 -0.0000000000000002  3.2328195100000001 14.5476877950000016   F   F   F
  3.2328195100000001  3.2328195100000001 17.7805073050000004   F   F   F
  0.0000000000000000  0.0000000000000000 17.7805073050000004   F   F   F
  0.8894797057039344  4.1222992157039346 18.6699870107039381   F   F   F
  4.1222992157039346  5.5761593142960653 16.8910275992960663   F   F   F
  5.5761593142960653  0.8894797057039346 13.6582080892960658   F   F   F
  2.3433398042960647  2.3433398042960638 15.4371675007039375   F   F   F
  5.5761593142960653  2.3433398042960656 16.8910275992960663   F   F   F
  2.3433398042960647  0.8894797057039346 18.6699870107039381   F   F   F
  0.8894797057039343  5.5761593142960653 15.4371675007039375   F   F   F
  4.1222992157039346  4.1222992157039346 13.6582080892960658   F   F   F
  3.2328195100000001  0.0000000000000000 21.0133268150000028   F   F   F
 -0.0000000000000002  3.2328195100000001 21.0133268150000028   F   F   F
  3.2495973181959115  3.2223134553224653 24.1448720163896979   T   T   T
  0.1426904267864302  0.0852695414687332 24.1734537780065040   T   T   T
  1.1678523742705242  4.1230108332878093 25.2778005482287718   T   T   T
  4.1241575880907124  5.6749455524477259 23.6051233188150782   T   T   T
  5.5761593142960653  0.8894797057039346 20.1238471092960651   F   F   F
  2.3433398042960647  2.3433398042960638 21.9028065207039369   F   F   F
  5.6609027831691225  2.4165070249563181 23.5976780222732323   T   T   T
  2.2922546977859923  1.1074094418329428 25.4267118044045510   T   T   T
  0.8894797057039343  5.5761593142960653 21.9028065207039369   F   F   F
  4.1222992157039346  4.1222992157039346 20.1238471092960651   F   F   F
  3.2328195099999997  6.4656390200000002 14.5476877950000016   F   F   F
 -0.0000000000000006  9.6984585299999999 14.5476877950000016   F   F   F
  3.2328195099999997  9.6984585299999999 17.7805073050000004   F   F   F
 -0.0000000000000004  6.4656390200000002 17.7805073050000004   F   F   F
  0.8894797057039340 10.5879382357039340 18.6699870107039381   F   F   F
  4.1222992157039346 12.0417983342960646 16.8910275992960663   F   F   F
  5.5761593142960653  7.3551187257039352 13.6582080892960658   F   F   F
  2.3433398042960643  8.8089788242960640 15.4371675007039375   F   F   F
  5.5761593142960653  8.8089788242960658 16.8910275992960663   F   F   F
  2.3433398042960643  7.3551187257039352 18.6699870107039381   F   F   F
  0.8894797057039339 12.0417983342960646 15.4371675007039375   F   F   F
  4.1222992157039346 10.5879382357039340 13.6582080892960658   F   F   F
  3.2328195099999997  6.4656390200000002 21.0133268150000028   F   F   F
 -0.0000000000000006  9.6984585299999999 21.0133268150000028   F   F   F
  3.1548304349363301  9.7178258503111756 24.1633543499409171   T   T   T
  0.0378923061944075  6.6422705070728822 24.0343568167589439   T   T   T
  0.9764077119946251 10.7503239779130872 25.1574291983088933   T   T   T
  4.0946106192189848 12.1467944995167194 23.6254785923116124   T   T   T
  5.5761593142960653  7.3551187257039352 20.1238471092960651   F   F   F
  2.3433398042960643  8.8089788242960640 21.9028065207039369   F   F   F
  5.6080942310318012  8.9030997205005242 23.6683170600623107   T   T   T
  2.2316917234110032  7.4218302585581775 25.1235529402584525   T   T   T
  0.8894797057039339 12.0417983342960646 21.9028065207039369   F   F   F
  4.1222992157039346 10.5879382357039340 20.1238471092960651   F   F   F
  9.6984585299999999  0.0000000000000000 14.5476877950000016   F   F   F
  6.4656390200000002  3.2328195100000001 14.5476877950000016   F   F   F
  9.6984585299999999  3.2328195100000001 17.7805073050000004   F   F   F
  6.4656390200000002  0.0000000000000000 17.7805073050000004   F   F   F
  7.3551187257039343  4.1222992157039346 18.6699870107039381   F   F   F
 10.5879382357039340  5.5761593142960653 16.8910275992960663   F   F   F
 12.0417983342960646  0.8894797057039346 13.6582080892960658   F   F   F
  8.8089788242960658  2.3433398042960638 15.4371675007039375   F   F   F
 12.0417983342960646  2.3433398042960656 16.8910275992960663   F   F   F
  8.8089788242960658  0.8894797057039346 18.6699870107039381   F   F   F
  7.3551187257039343  5.5761593142960653 15.4371675007039375   F   F   F
 10.5879382357039340  4.1222992157039346 13.6582080892960658   F   F   F
  9.6984585299999999  0.0000000000000000 21.0133268150000028   F   F   F
  6.4656390200000002  3.2328195100000001 21.0133268150000028   F   F   F
  9.6264654187146625  3.2452813594883181 24.1535895874038289   T   T   T
  6.5642844690484905  0.0132185063266661 24.1670274754977328   T   T   T
  7.4157631206870489  4.1989763063087242 25.1768725739785459   T   T   T
 10.5919116857813442  5.6892850634030498 23.6351485173687088   T   T   T
 12.0417983342960646  0.8894797057039346 20.1238471092960651   F   F   F
  8.8089788242960658  2.3433398042960638 21.9028065207039369   F   F   F
 12.0977079101068661  2.4461632543151248 23.5601748555669310   T   T   T
  8.7929227873847431  0.9780078627502468 25.1960646189691779   T   T   T
  7.3551187257039343  5.5761593142960653 21.9028065207039369   F   F   F
 10.5879382357039340  4.1222992157039346 20.1238471092960651   F   F   F
  9.6984585299999999  6.4656390200000002 14.5476877950000016   F   F   F
  6.4656390200000002  9.6984585299999999 14.5476877950000016   F   F   F
  9.6984585299999999  9.6984585299999999 17.7805073050000004   F   F   F
  6.4656390200000002  6.4656390200000002 17.7805073050000004   F   F   F
  7.3551187257039343 10.5879382357039340 18.6699870107039381   F   F   F
 10.5879382357039340 12.0417983342960646 16.8910275992960663   F   F   F
 12.0417983342960646  7.3551187257039352 13.6582080892960658   F   F   F
  8.8089788242960658  8.8089788242960640 15.4371675007039375   F   F   F
 12.0417983342960646  8.8089788242960658 16.8910275992960663   F   F   F
  8.8089788242960658  7.3551187257039352 18.6699870107039381   F   F   F
  7.3551187257039343 12.0417983342960646 15.4371675007039375   F   F   F
 10.5879382357039340 10.5879382357039340 13.6582080892960658   F   F   F
  9.6984585299999999  6.4656390200000002 21.0133268150000028   F   F   F
  6.4656390200000002  9.6984585299999999 21.0133268150000028   F   F   F
  9.5991784761120762  9.7394480291753389 24.1828986349062944   T   T   T
  6.5849219463964088  6.4835974565978374 24.1819095206809180   T   T   T
  7.3834313520241919 10.6774751202616081 25.1842712101316302   T   T   T
 10.5757753243891166 12.1583130803375674 23.6783155826156708   T   T   T
 12.0417983342960646  7.3551187257039352 20.1238471092960651   F   F   F
  8.8089788242960658  8.8089788242960640 21.9028065207039369   F   F   F
 12.0396088288582099  9.0062140482787818 23.6610724598754878   T   T   T
  8.8036375018728741  7.4400007471653886 25.1793822566069885   T   T   T
  7.3551187257039343 12.0417983342960646 21.9028065207039369   F   F   F
 10.5879382357039340 10.5879382357039340 20.1238471092960651   F   F   F
  1.1122185287327029  2.5360468003202237 26.5102295076805348   T   T   T
