Te Pd                                   
   1.00000000000000     
    11.4545060173354365    0.0000000000000000    0.0000000000000007
    -0.0000000000000006   10.0011441711883435    0.0000000000000006
     0.0000000000000000    0.0000000000000000   30.0034325135650306
   Te   Pd
    16    48
Selective dynamics
Direct
  0.0000000000000000  0.2500000000000000  0.3750000000000000   F   F   F
  0.0000000000000000  0.0000000000000000  0.4583333333333357   F   F   F
  0.3740449599999991  0.2500000000000000  0.4583333333333357   F   F   F
  0.3740449599999991  0.5000000000000000  0.3750000000000000   F   F   F
  0.2500000000000000  0.2500000000000000  0.3750000000000000   F   F   F
  0.2500000000000000  0.0000000000000000  0.4583333333333357   F   F   F
  0.1259550400000009  0.2500000000000000  0.4583333333333357   F   F   F
  0.1259550400000009  0.5000000000000000  0.3750000000000000   F   F   F
  0.0000000000000000  0.2500000000000000  0.5416666666666643   F   F   F
  0.0000194573371175  0.0000347848701168  0.6283612154980460   T   T   T
  0.3760910862585050  0.2500541967429726  0.6222829807607724   T   T   T
  0.3740449599999991  0.5000000000000000  0.5416666666666643   F   F   F
  0.2500000000000000  0.2500000000000000  0.5416666666666643   F   F   F
  0.2500356866322520  0.9999521959276478  0.6216150116121426   T   T   T
  0.1238799525882470  0.2499837275020838  0.6222760521332802   T   T   T
  0.1259550400000009  0.5000000000000000  0.5416666666666643   F   F   F
  0.0000000000000000  0.7500000000000000  0.3750000000000000   F   F   F
  0.0000000000000000  0.5000000000000000  0.4583333333333357   F   F   F
  0.3740449599999991  0.7500000000000000  0.4583333333333357   F   F   F
  0.3740449599999991  0.0000000000000000  0.3750000000000000   F   F   F
  0.2500000000000000  0.7500000000000000  0.3750000000000000   F   F   F
  0.2500000000000000  0.5000000000000000  0.4583333333333357   F   F   F
  0.1259550400000009  0.7500000000000000  0.4583333333333357   F   F   F
  0.1259550400000009  0.0000000000000000  0.3750000000000000   F   F   F
  0.0000000000000000  0.7500000000000000  0.5416666666666643   F   F   F
  0.0000325791067084  0.4999668052169000  0.6283566874756374   T   T   T
  0.3760822245819071  0.7499938788792662  0.6222636532634738   T   T   T
  0.3740449599999991  0.0000000000000000  0.5416666666666643   F   F   F
  0.2500000000000000  0.7500000000000000  0.5416666666666643   F   F   F
  0.2500222684201532  0.5000002635953820  0.6216136868952660   T   T   T
  0.1236766500566162  0.7499830994174133  0.6221852944224082   T   T   T
  0.1259550400000009  0.0000000000000000  0.5416666666666643   F   F   F
  0.5000000000000000  0.2500000000000000  0.3750000000000000   F   F   F
  0.5000000000000000  0.0000000000000000  0.4583333333333357   F   F   F
  0.8740449599999991  0.2500000000000000  0.4583333333333357   F   F   F
  0.8740449599999991  0.5000000000000000  0.3750000000000000   F   F   F
  0.7500000000000000  0.2500000000000000  0.3750000000000000   F   F   F
  0.7500000000000000  0.0000000000000000  0.4583333333333357   F   F   F
  0.6259550400000009  0.2500000000000000  0.4583333333333357   F   F   F
  0.6259550400000009  0.5000000000000000  0.3750000000000000   F   F   F
  0.5000000000000000  0.2500000000000000  0.5416666666666643   F   F   F
  0.4998678337590690  0.0000259553496491  0.6283191344510541   T   T   T
  0.8761527006194214  0.2500415934325702  0.6221423860287771   T   T   T
  0.8740449599999991  0.5000000000000000  0.5416666666666643   F   F   F
  0.7500000000000000  0.2500000000000000  0.5416666666666643   F   F   F
  0.7500631199497718  0.9999553617434032  0.6216441996783502   T   T   T
  0.6239337457482392  0.2499801600261478  0.6221779532972604   T   T   T
  0.6259550400000009  0.5000000000000000  0.5416666666666643   F   F   F
  0.5000000000000000  0.7500000000000000  0.3750000000000000   F   F   F
  0.5000000000000000  0.5000000000000000  0.4583333333333357   F   F   F
  0.8740449599999991  0.7500000000000000  0.4583333333333357   F   F   F
  0.8740449599999991  0.0000000000000000  0.3750000000000000   F   F   F
  0.7500000000000000  0.7500000000000000  0.3750000000000000   F   F   F
  0.7500000000000000  0.5000000000000000  0.4583333333333357   F   F   F
  0.6259550400000009  0.7500000000000000  0.4583333333333357   F   F   F
  0.6259550400000009  0.0000000000000000  0.3750000000000000   F   F   F
  0.5000000000000000  0.7500000000000000  0.5416666666666643   F   F   F
  0.4998604383585032  0.4999687171161682  0.6283081542655893   T   T   T
  0.8760657850437354  0.7499983425225594  0.6221559862293304   T   T   T
  0.8740449599999991  0.0000000000000000  0.5416666666666643   F   F   F
  0.7500000000000000  0.7500000000000000  0.5416666666666643   F   F   F
  0.7500544111834913  0.5000009818689932  0.6216426393172583   T   T   T
  0.6237414045856653  0.7499776957824693  0.6221259339636092   T   T   T
  0.6259550400000009  0.0000000000000000  0.5416666666666643   F   F   F
 
  0.00000000E+00  0.00000000E+00  0.00000000E+00
  0.00000000E+00  0.00000000E+00  0.00000000E+00
  0.00000000E+00  0.00000000E+00  0.00000000E+00
  0.00000000E+00  0.00000000E+00  0.00000000E+00
  0.00000000E+00  0.00000000E+00  0.00000000E+00
  0.00000000E+00  0.00000000E+00  0.00000000E+00
  0.00000000E+00  0.00000000E+00  0.00000000E+00
  0.00000000E+00  0.00000000E+00  0.00000000E+00
  0.00000000E+00  0.00000000E+00  0.00000000E+00
  0.00000000E+00  0.00000000E+00  0.00000000E+00
  0.00000000E+00  0.00000000E+00  0.00000000E+00
  0.00000000E+00  0.00000000E+00  0.00000000E+00
  0.00000000E+00  0.00000000E+00  0.00000000E+00
  0.00000000E+00  0.00000000E+00  0.00000000E+00
  0.00000000E+00  0.00000000E+00  0.00000000E+00
  0.00000000E+00  0.00000000E+00  0.00000000E+00
  0.00000000E+00  0.00000000E+00  0.00000000E+00
  0.00000000E+00  0.00000000E+00  0.00000000E+00
  0.00000000E+00  0.00000000E+00  0.00000000E+00
  0.00000000E+00  0.00000000E+00  0.00000000E+00
  0.00000000E+00  0.00000000E+00  0.00000000E+00
  0.00000000E+00  0.00000000E+00  0.00000000E+00
  0.00000000E+00  0.00000000E+00  0.00000000E+00
  0.00000000E+00  0.00000000E+00  0.00000000E+00
  0.00000000E+00  0.00000000E+00  0.00000000E+00
  0.00000000E+00  0.00000000E+00  0.00000000E+00
  0.00000000E+00  0.00000000E+00  0.00000000E+00
  0.00000000E+00  0.00000000E+00  0.00000000E+00
  0.00000000E+00  0.00000000E+00  0.00000000E+00
  0.00000000E+00  0.00000000E+00  0.00000000E+00
  0.00000000E+00  0.00000000E+00  0.00000000E+00
  0.00000000E+00  0.00000000E+00  0.00000000E+00
  0.00000000E+00  0.00000000E+00  0.00000000E+00
  0.00000000E+00  0.00000000E+00  0.00000000E+00
  0.00000000E+00  0.00000000E+00  0.00000000E+00
  0.00000000E+00  0.00000000E+00  0.00000000E+00
  0.00000000E+00  0.00000000E+00  0.00000000E+00
  0.00000000E+00  0.00000000E+00  0.00000000E+00
  0.00000000E+00  0.00000000E+00  0.00000000E+00
  0.00000000E+00  0.00000000E+00  0.00000000E+00
  0.00000000E+00  0.00000000E+00  0.00000000E+00
  0.00000000E+00  0.00000000E+00  0.00000000E+00
  0.00000000E+00  0.00000000E+00  0.00000000E+00
  0.00000000E+00  0.00000000E+00  0.00000000E+00
  0.00000000E+00  0.00000000E+00  0.00000000E+00
  0.00000000E+00  0.00000000E+00  0.00000000E+00
  0.00000000E+00  0.00000000E+00  0.00000000E+00
  0.00000000E+00  0.00000000E+00  0.00000000E+00
  0.00000000E+00  0.00000000E+00  0.00000000E+00
  0.00000000E+00  0.00000000E+00  0.00000000E+00
  0.00000000E+00  0.00000000E+00  0.00000000E+00
  0.00000000E+00  0.00000000E+00  0.00000000E+00
  0.00000000E+00  0.00000000E+00  0.00000000E+00
  0.00000000E+00  0.00000000E+00  0.00000000E+00
  0.00000000E+00  0.00000000E+00  0.00000000E+00
  0.00000000E+00  0.00000000E+00  0.00000000E+00
  0.00000000E+00  0.00000000E+00  0.00000000E+00
  0.00000000E+00  0.00000000E+00  0.00000000E+00
  0.00000000E+00  0.00000000E+00  0.00000000E+00
  0.00000000E+00  0.00000000E+00  0.00000000E+00
  0.00000000E+00  0.00000000E+00  0.00000000E+00
  0.00000000E+00  0.00000000E+00  0.00000000E+00
  0.00000000E+00  0.00000000E+00  0.00000000E+00
  0.00000000E+00  0.00000000E+00  0.00000000E+00
