Te Pd
 1.0000000000000000
    11.4545060173354365    0.0000000000000000    0.0000000000000007
    -0.0000000000000006   10.0011441711883435    0.0000000000000006
     0.0000000000000000    0.0000000000000000   30.0034325135650306
Te Pd
16 48
Selective dynamics
Cartesian
 -0.0000000000000002  2.5002860427970863 11.2512871925868865   F   F   F
  0.0000000000000000  0.0000000000000000 13.7515732353839741   F   F   F
  4.2845002450739935  2.5002860427970859 13.7515732353839741   F   F   F
  4.2845002450739935  5.0005720855941709 11.2512871925868883   F   F   F
  2.8636265043338591  2.5002860427970863 11.2512871925868865   F   F   F
  2.8636265043338591  0.0000000000000000 13.7515732353839741   F   F   F
  1.4427527635937250  2.5002860427970859 13.7515732353839741   F   F   F
  1.4427527635937250  5.0005720855941709 11.2512871925868883   F   F   F
 -0.0000000000000002  2.5002860427970863 16.2518592781810582   F   F   F
  0.0002228741850558  0.0003478885009827 18.8529933233374152   T   T   T
  4.3079376106142968  2.5008280722371978 18.6706254175958577   T   T   T
  4.2845002450739935  5.0005720855941709 16.2518592781810618   F   F   F
  2.8636265043338591  2.5002860427970863 16.2518592781810582   F   F   F
  2.8640352770777264 -0.0004780954195667 18.6505840503239426   T   T   T
  1.4189836623493275  2.5001232991994016 18.6704175349885020   T   T   T
  1.4427527635937250  5.0005720855941709 16.2518592781810618   F   F   F
 -0.0000000000000005  7.5008581283912577 11.2512871925868865   F   F   F
 -0.0000000000000003  5.0005720855941718 13.7515732353839741   F   F   F
  4.2845002450739935  7.5008581283912577 13.7515732353839741   F   F   F
  4.2845002450739935 10.0011441711883435 11.2512871925868883   F   F   F
  2.8636265043338587  7.5008581283912577 11.2512871925868865   F   F   F
  2.8636265043338587  5.0005720855941718 13.7515732353839741   F   F   F
  1.4427527635937247  7.5008581283912577 13.7515732353839741   F   F   F
  1.4427527635937247 10.0011441711883435 11.2512871925868883   F   F   F
 -0.0000000000000005  7.5008581283912577 16.2518592781810582   F   F   F
  0.0003731775738058  5.0002400997826726 18.8528574671225044   T   T   T
  4.3078361044863209  7.5007969101803269 18.6700455263351444   T   T   T
  4.2845002450739935 10.0011441711883435 16.2518592781810618   F   F   F
  2.8636265043338587  7.5008581283912577 16.2518592781810582   F   F   F
  2.8638815780865277  5.0005747218496026 18.6505443042704258   T   T   T
  1.4166549322774324  7.5006891032282397 18.6676944921353254   T   T   T
  1.4427527635937247 10.0011441711883435 16.2518592781810618   F   F   F
  5.7272530086677182  2.5002860427970863 11.2512871925868865   F   F   F
  5.7272530086677182  0.0000000000000000 13.7515732353839741   F   F   F
 10.0117532537417127  2.5002860427970859 13.7515732353839741   F   F   F
 10.0117532537417127  5.0005720855941709 11.2512871925868883   F   F   F
  8.5908795130015783  2.5002860427970863 11.2512871925868865   F   F   F
  8.5908795130015783  0.0000000000000000 13.7515732353839741   F   F   F
  7.1700057722614430  2.5002860427970859 13.7515732353839741   F   F   F
  7.1700057722614430  5.0005720855941709 11.2512871925868883   F   F   F
  5.7272530086677182  2.5002860427970863 16.2518592781810582   F   F   F
  5.7257391096656978  0.0002595831938379 18.8517307474837992   T   T   T
 10.0358963813498256  2.5007020247127798 18.6664070930426362   T   T   T
 10.0117532537417127  5.0005720855941709 16.2518592781810618   F   F   F
  8.5908795130015783  2.5002860427970863 16.2518592781810582   F   F   F
  8.5916025208460773 -0.0004464336398087 18.6514597924986276   T   T   T
  7.1468528450918667  2.5000876203582152 18.6674742331822756   T   T   T
  7.1700057722614430  5.0005720855941709 16.2518592781810618   F   F   F
  5.7272530086677182  7.5008581283912577 11.2512871925868865   F   F   F
  5.7272530086677182  5.0005720855941718 13.7515732353839741   F   F   F
 10.0117532537417127  7.5008581283912577 13.7515732353839741   F   F   F
 10.0117532537417127 10.0011441711883435 11.2512871925868883   F   F   F
  8.5908795130015783  7.5008581283912577 11.2512871925868865   F   F   F
  8.5908795130015783  5.0005720855941718 13.7515732353839741   F   F   F
  7.1700057722614430  7.5008581283912577 13.7515732353839741   F   F   F
  7.1700057722614430 10.0011441711883435 11.2512871925868883   F   F   F
  5.7272530086677182  7.5008581283912577 16.2518592781810582   F   F   F
  5.7256543990053945  5.0002592209629029 18.8514013042302224   T   T   T
 10.0349008063651262  7.5008415517204412 18.6668151457422766   T   T   T
 10.0117532537417127 10.0011441711883435 16.2518592781810618   F   F   F
  8.5908795130015783  7.5008581283912577 16.2518592781810582   F   F   F
  8.5915027662302741  5.0005819054075573 18.6514129763097856   T   T   T
  7.1446496720877759  7.5006350606961405 18.6659134746157918   T   T   T
  7.1700057722614430 10.0011441711883435 16.2518592781810618   F   F   F
