Cd Au H O                               
   1.00000000000000     
    11.9650397902858856    0.0000000000000000    0.0000000000000007
    -5.9825198951429464   10.3620284156792071    0.0000000000000007
     0.0000000000000000    0.0000000000000000   34.6386758199999960
   Cd   Au   H    O 
    16    48     1     1
Selective dynamics
Direct
  0.3333333333333357  0.1666666666666643  0.4642857142857153   F   F   F
  0.1666666666666643  0.3333333333333357  0.3928571428571459   F   F   F
  0.4168385525000033  0.3336771049999996  0.3928571428571459   F   F   F
  0.1663228950000004  0.0831614474999967  0.3928571428571459   F   F   F
  0.4168385525000033  0.0831614474999967  0.3928571428571459   F   F   F
  0.0831614474999967  0.1663228950000004  0.4642857142857153   F   F   F
  0.3336771049999996  0.4168385525000033  0.4642857142857153   F   F   F
  0.0831614474999967  0.4168385525000033  0.4642857142857153   F   F   F
  0.3393295132004255  0.1647102474703388  0.6111421162024584   T   T   T
  0.1666666666666643  0.3333333333333357  0.5357142857142847   F   F   F
  0.4180089586513205  0.3334202578012295  0.5349545355917655   T   T   T
  0.1657923087932289  0.0847749660825841  0.5366127472880535   T   T   T
  0.4174439503049641  0.0824136124487538  0.5348758527767785   T   T   T
  0.0978146921409291  0.1569698842385776  0.6086545161546297   T   T   T
  0.3365177075139272  0.4165529921127771  0.6065870020012909   T   T   T
  0.0967659705484536  0.4337214509443328  0.6048993467119388   T   T   T
  0.3333333333333357  0.6666666666666643  0.4642857142857153   F   F   F
  0.1666666666666643  0.8333333333333357  0.3928571428571459   F   F   F
  0.4168385525000033  0.8336771049999996  0.3928571428571459   F   F   F
  0.1663228950000004  0.5831614474999967  0.3928571428571459   F   F   F
  0.4168385525000033  0.5831614474999967  0.3928571428571459   F   F   F
  0.0831614474999967  0.6663228950000004  0.4642857142857153   F   F   F
  0.3336771049999996  0.9168385525000033  0.4642857142857153   F   F   F
  0.0831614474999967  0.9168385525000033  0.4642857142857153   F   F   F
  0.3411500174836135  0.6695574643010929  0.6132418453556099   T   T   T
  0.1666666666666643  0.8333333333333357  0.5357142857142847   F   F   F
  0.4176798048857151  0.8324093223375328  0.5352065463148037   T   T   T
  0.1696010207874821  0.5868275889726817  0.5339389454099717   T   T   T
  0.4181769799393891  0.5831835129307734  0.5347500823656404   T   T   T
  0.0885155319323658  0.6699961097942264  0.6081420719539707   T   T   T
  0.3371366289877358  0.9148114540517653  0.6073944728215395   T   T   T
  0.0834027634298664  0.9068575842667457  0.6079375870414410   T   T   T
  0.8333333333333357  0.1666666666666643  0.4642857142857153   F   F   F
  0.6666666666666643  0.3333333333333357  0.3928571428571459   F   F   F
  0.9168385525000033  0.3336771049999996  0.3928571428571459   F   F   F
  0.6663228950000004  0.0831614474999967  0.3928571428571459   F   F   F
  0.9168385525000033  0.0831614474999967  0.3928571428571459   F   F   F
  0.5831614474999967  0.1663228950000004  0.4642857142857153   F   F   F
  0.8336771049999996  0.4168385525000033  0.4642857142857153   F   F   F
  0.5831614474999967  0.4168385525000033  0.4642857142857153   F   F   F
  0.8185702368226018  0.1644327508388201  0.6196100290828355   T   T   T
  0.6666666666666643  0.3333333333333357  0.5357142857142847   F   F   F
  0.9175614471986151  0.3299043915170543  0.5375486808941758   T   T   T
  0.6696937497804498  0.0841418991650471  0.5362067314786003   T   T   T
  0.9158144451168511  0.0850538802624214  0.5398770882919450   T   T   T
  0.5823245886290636  0.1644127180739261  0.6072887800813973   T   T   T
  0.8368958933290145  0.4146293823931302  0.6074444712970859   T   T   T
  0.5860568290235051  0.4138325535641059  0.6077055608947219   T   T   T
  0.8333333333333357  0.6666666666666643  0.4642857142857153   F   F   F
  0.6666666666666643  0.8333333333333357  0.3928571428571459   F   F   F
  0.9168385525000033  0.8336771049999996  0.3928571428571459   F   F   F
  0.6663228950000004  0.5831614474999967  0.3928571428571459   F   F   F
  0.9168385525000033  0.5831614474999967  0.3928571428571459   F   F   F
  0.5831614474999967  0.6663228950000004  0.4642857142857153   F   F   F
  0.8336771049999996  0.9168385525000033  0.4642857142857153   F   F   F
  0.5831614474999967  0.9168385525000033  0.4642857142857153   F   F   F
  0.8352516647826462  0.6575344101868694  0.6135446088105212   T   T   T
  0.6666666666666643  0.8333333333333357  0.5357142857142847   F   F   F
  0.9186043319763542  0.8337260820648780  0.5344066506071101   T   T   T
  0.6687135542209717  0.5837011436644417  0.5352622375592517   T   T   T
  0.9172074875194838  0.5820853278226821  0.5350898986669463   T   T   T
  0.5829495526384250  0.6587234968804694  0.6082029465573484   T   T   T
  0.8269481324885462  0.8955287842213124  0.6049192591866230   T   T   T
  0.5858879858446215  0.9127699838125878  0.6076472444810364   T   T   T
  0.0170250769417351  0.2449422550230338  0.6708966503193068   T   T   T
  0.9669536615014209  0.1626138480964769  0.6574707737672512   T   T   T
 
  0.00000000E+00  0.00000000E+00  0.00000000E+00
  0.00000000E+00  0.00000000E+00  0.00000000E+00
  0.00000000E+00  0.00000000E+00  0.00000000E+00
  0.00000000E+00  0.00000000E+00  0.00000000E+00
  0.00000000E+00  0.00000000E+00  0.00000000E+00
  0.00000000E+00  0.00000000E+00  0.00000000E+00
  0.00000000E+00  0.00000000E+00  0.00000000E+00
  0.00000000E+00  0.00000000E+00  0.00000000E+00
  0.00000000E+00  0.00000000E+00  0.00000000E+00
  0.00000000E+00  0.00000000E+00  0.00000000E+00
  0.00000000E+00  0.00000000E+00  0.00000000E+00
  0.00000000E+00  0.00000000E+00  0.00000000E+00
  0.00000000E+00  0.00000000E+00  0.00000000E+00
  0.00000000E+00  0.00000000E+00  0.00000000E+00
  0.00000000E+00  0.00000000E+00  0.00000000E+00
  0.00000000E+00  0.00000000E+00  0.00000000E+00
  0.00000000E+00  0.00000000E+00  0.00000000E+00
  0.00000000E+00  0.00000000E+00  0.00000000E+00
  0.00000000E+00  0.00000000E+00  0.00000000E+00
  0.00000000E+00  0.00000000E+00  0.00000000E+00
  0.00000000E+00  0.00000000E+00  0.00000000E+00
  0.00000000E+00  0.00000000E+00  0.00000000E+00
  0.00000000E+00  0.00000000E+00  0.00000000E+00
  0.00000000E+00  0.00000000E+00  0.00000000E+00
  0.00000000E+00  0.00000000E+00  0.00000000E+00
  0.00000000E+00  0.00000000E+00  0.00000000E+00
  0.00000000E+00  0.00000000E+00  0.00000000E+00
  0.00000000E+00  0.00000000E+00  0.00000000E+00
  0.00000000E+00  0.00000000E+00  0.00000000E+00
  0.00000000E+00  0.00000000E+00  0.00000000E+00
  0.00000000E+00  0.00000000E+00  0.00000000E+00
  0.00000000E+00  0.00000000E+00  0.00000000E+00
  0.00000000E+00  0.00000000E+00  0.00000000E+00
  0.00000000E+00  0.00000000E+00  0.00000000E+00
  0.00000000E+00  0.00000000E+00  0.00000000E+00
  0.00000000E+00  0.00000000E+00  0.00000000E+00
  0.00000000E+00  0.00000000E+00  0.00000000E+00
  0.00000000E+00  0.00000000E+00  0.00000000E+00
  0.00000000E+00  0.00000000E+00  0.00000000E+00
  0.00000000E+00  0.00000000E+00  0.00000000E+00
  0.00000000E+00  0.00000000E+00  0.00000000E+00
  0.00000000E+00  0.00000000E+00  0.00000000E+00
  0.00000000E+00  0.00000000E+00  0.00000000E+00
  0.00000000E+00  0.00000000E+00  0.00000000E+00
  0.00000000E+00  0.00000000E+00  0.00000000E+00
  0.00000000E+00  0.00000000E+00  0.00000000E+00
  0.00000000E+00  0.00000000E+00  0.00000000E+00
  0.00000000E+00  0.00000000E+00  0.00000000E+00
  0.00000000E+00  0.00000000E+00  0.00000000E+00
  0.00000000E+00  0.00000000E+00  0.00000000E+00
  0.00000000E+00  0.00000000E+00  0.00000000E+00
  0.00000000E+00  0.00000000E+00  0.00000000E+00
  0.00000000E+00  0.00000000E+00  0.00000000E+00
  0.00000000E+00  0.00000000E+00  0.00000000E+00
  0.00000000E+00  0.00000000E+00  0.00000000E+00
  0.00000000E+00  0.00000000E+00  0.00000000E+00
  0.00000000E+00  0.00000000E+00  0.00000000E+00
  0.00000000E+00  0.00000000E+00  0.00000000E+00
  0.00000000E+00  0.00000000E+00  0.00000000E+00
  0.00000000E+00  0.00000000E+00  0.00000000E+00
  0.00000000E+00  0.00000000E+00  0.00000000E+00
  0.00000000E+00  0.00000000E+00  0.00000000E+00
  0.00000000E+00  0.00000000E+00  0.00000000E+00
  0.00000000E+00  0.00000000E+00  0.00000000E+00
  0.00000000E+00  0.00000000E+00  0.00000000E+00
  0.00000000E+00  0.00000000E+00  0.00000000E+00
