Cd Au H O
 1.0000000000000000
    11.9650397902858856    0.0000000000000000    0.0000000000000007
    -5.9825198951429464   10.3620284156792071    0.0000000000000007
     0.0000000000000000    0.0000000000000000   34.6386758199999960
Cd Au H O
16 48 1 1
Selective dynamics
Cartesian
  2.9912599475714705  1.7270047359465348 16.0822423450000009   F   F   F
 -0.0000000000000011  3.4540094718930683 13.6080512149999997   F   F   F
  2.9912599475714705  3.4575716436715735 13.6080512149999997   F   F   F
  1.4925450425329072  0.8617212820840150 13.6080512149999997   F   F   F
  4.4899748526100360  0.8617212820840150 13.6080512149999997   F   F   F
 -0.0000000000000009  1.7234425641680304 16.0822423450000009   F   F   F
  1.4987149050385633  4.3192929257555885 16.0822423450000009   F   F   F
 -1.4987149050385660  4.3192929257555885 16.0822423450000009   F   F   F
  3.0747087950362220  1.7067322646411736 21.1691536430858349   T   T   T
 -0.0000000000000011  3.4540094718930683 18.5564334750000022   F   F   F
  3.0068004972194649  3.4549101856993927 18.5301167368018547   T   T   T
  1.4765436504352292  0.8784406074859517 18.5875549941904943   T   T   T
  4.5016923995077072  0.8539721940327736 18.5273912682808337   T   T   T
  0.2312812281452343  1.6265264008860272 21.0829864714592503   T   T   T
  1.5344111978439323  4.3163339409087875 21.0113705189483397   T   T   T
 -1.4369385212668084  4.4942339991747655 20.9529123744846828   T   T   T
 -0.0000000000000027  6.9080189437861383 16.0822423450000009   F   F   F
 -2.9912599475714741  8.6350236797326723 13.6080512149999997   F   F   F
 -0.0000000000000027  8.6385858515111771 13.6080512149999997   F   F   F
 -1.4987149050385660  6.0427354899236185 13.6080512149999997   F   F   F
  1.4987149050385629  6.0427354899236185 13.6080512149999997   F   F   F
 -2.9912599475714741  6.9044567720076344 16.0822423450000009   F   F   F
 -1.4925450425329099  9.5003071335951930 16.0822423450000009   F   F   F
 -4.4899748526100396  9.5003071335951930 16.0822423450000009   F   F   F
  0.0762326825254123  6.9379734710180321 21.2418854805314794   T   T   T
 -2.9912599475714741  8.6350236797326723 18.5564334750000022   F   F   F
  0.0176501532696394  8.6254490515377960 18.5388460545403255   T   T   T
 -1.4814247638524711  6.0807241520394406 18.4949380377286694   T   T   T
  1.5145972357287096  6.0429641325442596 18.5230347477816473   T   T   T
 -2.9491731948832820  6.9425187280823053 21.0652360829167691   T   T   T
 -1.4390245435682654  9.4793022818732382 21.0393402389250213   T   T   T
 -4.4273761568788998  9.3968840571462309 21.0581529963215388   T   T   T
  8.9737798427144142  1.7270047359465348 16.0822423450000009   F   F   F
  5.9825198951429419  3.4540094718930683 13.6080512149999997   F   F   F
  8.9737798427144142  3.4575716436715735 13.6080512149999997   F   F   F
  7.4750649376758496  0.8617212820840150 13.6080512149999997   F   F   F
 10.4724947477529788  0.8617212820840150 13.6080512149999997   F   F   F
  5.9825198951429419  1.7234425641680304 16.0822423450000009   F   F   F
  7.4812348001815057  4.3192929257555885 16.0822423450000009   F   F   F
  4.4838049901043764  4.3192929257555885 16.0822423450000009   F   F   F
  8.8105032514198527  1.7038568366601208 21.4624709322211373   T   T   T
  5.9825198951429419  3.4540094718930683 18.5564334750000022   F   F   F
  9.0049996400179069  3.4184786793570963 18.6199744949620332   T   T   T
  7.5095317776588466  0.8718807500974135 18.5734911441889459   T   T   T
 10.4489197455127290  0.8813307241429511 18.7006274439902960   T   T   T
  5.9839345169167890  1.7036492565810790 21.0356791823628981   T   T   T
  7.5329641347307419  4.2964014423331616 21.0410721199109929   T   T   T
  4.5364317936799257  4.2881446793643487 21.0501159178434563   T   T   T
  5.9825198951429401  6.9080189437861383 16.0822423450000009   F   F   F
  2.9912599475714687  8.6350236797326723 13.6080512149999997   F   F   F
  5.9825198951429401  8.6385858515111771 13.6080512149999997   F   F   F
  4.4838049901043764  6.0427354899236185 13.6080512149999997   F   F   F
  7.4812348001815057  6.0427354899236185 13.6080512149999997   F   F   F
  2.9912599475714687  6.9044567720076344 16.0822423450000009   F   F   F
  4.4899748526100325  9.5003071335951930 16.0822423450000009   F   F   F
  1.4925450425329037  9.5003071335951930 16.0822423450000009   F   F   F
  6.0601067133429014  6.8133902426432007 21.2523728056963108   T   T   T
  2.9912599475714687  8.6350236797326723 18.5564334750000022   F   F   F
  6.0033545105733710  8.6390933532491339 18.5111387264317351   T   T   T
  4.5091805797672482  6.0483278369153801 18.5407751255027584   T   T   T
  7.4920870297487685  6.0315847072485873 18.5348055344809914   T   T   T
  3.0341881675626228  6.8257115927509773 21.0673446985688742   T   T   T
  4.5369485414508404  9.2794947091599127 20.9536021162398782   T   T   T
  1.5495084754332784  9.4581485092450706 21.0480959144947946   T   T   T
 -1.2616661907959503  2.5380986067492208 23.2389715791344749   T   T   T
 -1.3682413365216342  1.6850093147586154 22.7739169936484807   T   T   T
