Cd Au
 1.0000000000000000
     9.3574772700000004    0.0000000000000000    0.0000000000000006
    -0.0000000000000006    9.9414709200000004    0.0000000000000006
     0.0000000000000000    0.0000000000000000   31.2404451600000002
Cd Au
24 24
Selective dynamics
Cartesian
 -0.0000000000000001  1.2426838650000001 12.0059348270236796   F   F   F
 -0.0000000000000002  3.7280515950000002 14.0277694729763223   F   F   F
  1.5595795450000001  1.2426838650000001 14.6347980850831423   F   F   F
  1.5595795449999998  3.7280515950000002 11.3989062149168596   F   F   F
 -0.0000000000000001  1.2426838650000001 17.2126756870236797   F   F   F
  0.0011046223535229  3.7260974839986041 19.7222724330395884   T   T   T
  1.5608710600446134  1.2423565263015881 19.7395251210412077   T   T   T
  1.5595795449999998  3.7280515950000002 16.6056470749168632   F   F   F
 -0.0000000000000004  6.2134193250000003 12.0059348270236796   F   F   F
 -0.0000000000000005  8.6987870550000004 14.0277694729763223   F   F   F
  1.5595795449999998  6.2134193250000003 14.6347980850831423   F   F   F
  1.5595795449999996  8.6987870550000004 11.3989062149168596   F   F   F
 -0.0000000000000004  6.2134193250000003 17.2126756870236797   F   F   F
  0.0013698607544933  8.6996365111425327 19.7229853232175536   T   T   T
  1.5607202893016650  6.2125289368010321 19.7374509764934025   T   T   T
  1.5595795449999996  8.6987870550000004 16.6056470749168632   F   F   F
  3.1191590900000001  1.2426838650000001 12.0059348270236796   F   F   F
  3.1191590899999997  3.7280515950000002 14.0277694729763223   F   F   F
  4.6787386350000002  1.2426838650000001 14.6347980850831423   F   F   F
  4.6787386350000002  3.7280515950000002 11.3989062149168596   F   F   F
  3.1191590900000001  1.2426838650000001 17.2126756870236797   F   F   F
  3.1187701944347341  3.7260074896470208 19.7250013218045659   T   T   T
  4.6769824595688174  1.2425052009823467 19.7405254151538081   T   T   T
  4.6787386350000002  3.7280515950000002 16.6056470749168632   F   F   F
  3.1191590899999997  6.2134193250000003 12.0059348270236796   F   F   F
  3.1191590899999992  8.6987870550000004 14.0277694729763223   F   F   F
  4.6787386350000002  6.2134193250000003 14.6347980850831423   F   F   F
  4.6787386349999993  8.6987870550000004 11.3989062149168596   F   F   F
  3.1191590899999997  6.2134193250000003 17.2126756870236797   F   F   F
  3.1188023476763247  8.7002307261535385 19.7258966548152692   T   T   T
  4.6767598035915494  6.2127086844817363 19.7390302131982587   T   T   T
  4.6787386349999993  8.6987870550000004 16.6056470749168632   F   F   F
  6.2383181800000003  1.2426838650000001 12.0059348270236796   F   F   F
  6.2383181800000003  3.7280515950000002 14.0277694729763223   F   F   F
  7.7978977250000003  1.2426838650000001 14.6347980850831423   F   F   F
  7.7978977250000003  3.7280515950000002 11.3989062149168596   F   F   F
  6.2383181800000003  1.2426838650000001 17.2126756870236797   F   F   F
  6.2377238827101920  3.7261816885651236 19.7268111074127681   T   T   T
  7.7988450604693913  1.2419625739581726 19.7403119011880896   T   T   T
  7.7978977250000003  3.7280515950000002 16.6056470749168632   F   F   F
  6.2383181800000003  6.2134193250000003 12.0059348270236796   F   F   F
  6.2383181800000003  8.6987870550000004 14.0277694729763223   F   F   F
  7.7978977250000003  6.2134193250000003 14.6347980850831423   F   F   F
  7.7978977250000003  8.6987870550000004 11.3989062149168596   F   F   F
  6.2383181800000003  6.2134193250000003 17.2126756870236797   F   F   F
  6.2378135970592794  8.6996197957786059 19.7273663623974151   T   T   T
  7.7993287065669552  6.2124024340847477 19.7386520841257713   T   T   T
  7.7978977250000003  8.6987870550000004 16.6056470749168632   F   F   F
