Ni S O                                  
   1.00000000000000     
     8.2184449857544060    0.0000000000000000    0.0911314190353902
     0.0901264975783482    8.2179507906963032    0.0911314190353902
     0.0000000000000000    0.0000000000000000   32.8758009288064983
   Ni   S    O 
    24    16     1
Selective dynamics
Direct
  0.2684823123968130  0.3600114216820600  0.5908183308077142   T   T   T
  0.2500000000000000  0.3719551749999965  0.4695112062499973   F   F   F
  0.1229946518966614  0.1261848650692059  0.5627284525271818   T   T   T
  0.1219551749999965  0.1280448250000035  0.4375000000000000   F   F   F
  0.3780448249999964  0.0000000000000000  0.5304887937500027   F   F   F
  0.3780448250000035  0.5000000000000000  0.4054887937500027   F   F   F
  0.3726868199999984  0.1226868199999984  0.4681717050000032   F   F   F
  0.3706307097674610  0.1102570327796712  0.5950127472022118   T   T   T
  0.1273131800000016  0.3773131800000016  0.5318282949999968   F   F   F
  0.1273131800000016  0.3773131800000016  0.4068282949999968   F   F   F
  0.2653194010764111  0.8622638358785508  0.5909028309859323   T   T   T
  0.2500000000000000  0.8719551749999965  0.4695112062499973   F   F   F
  0.1208884135520449  0.6216518357116243  0.5642292776661719   T   T   T
  0.1219551749999965  0.6280448250000035  0.4375000000000000   F   F   F
  0.3780448249999964  0.5000000000000000  0.5304887937500027   F   F   F
  0.3780448250000035  0.0000000000000000  0.4054887937500027   F   F   F
  0.3726868199999984  0.6226868199999984  0.4681717050000032   F   F   F
  0.3685411897428494  0.6109933138136867  0.5948228149904367   T   T   T
  0.1273131800000016  0.8773131800000016  0.5318282949999968   F   F   F
  0.1273131800000016  0.8773131800000016  0.4068282949999968   F   F   F
  0.7548923752898560  0.3680343478315677  0.5921285873463589   T   T   T
  0.7500000000000000  0.3719551749999965  0.4695112062499973   F   F   F
  0.6250494878033663  0.1218220150963418  0.5640138011968858   T   T   T
  0.6219551749999965  0.1280448250000035  0.4375000000000000   F   F   F
  0.8780448249999964  0.0000000000000000  0.5304887937500027   F   F   F
  0.8780448250000035  0.5000000000000000  0.4054887937500027   F   F   F
  0.8726868199999984  0.1226868199999984  0.4681717050000032   F   F   F
  0.8753702249067956  0.1362028133560926  0.5916885074548688   T   T   T
  0.6273131800000016  0.3773131800000016  0.5318282949999968   F   F   F
  0.6273131800000016  0.3773131800000016  0.4068282949999968   F   F   F
  0.7562246609944978  0.8507608662378203  0.5917011758317088   T   T   T
  0.7500000000000000  0.8719551749999965  0.4695112062499973   F   F   F
  0.6202768524932907  0.6218369864628315  0.5625893297036555   T   T   T
  0.6219551749999965  0.6280448250000035  0.4375000000000000   F   F   F
  0.8780448249999964  0.5000000000000000  0.5304887937500027   F   F   F
  0.8780448250000035  0.0000000000000000  0.4054887937500027   F   F   F
  0.8726868199999984  0.6226868199999984  0.4681717050000032   F   F   F
  0.8683321302594891  0.6080123014614003  0.5950031123394126   T   T   T
  0.6273131800000016  0.8773131800000016  0.5318282949999968   F   F   F
  0.6273131800000016  0.8773131800000016  0.4068282949999968   F   F   F
  0.8723432483281357  0.0013590040864457  0.6267705733985025   T   T   T
 
  0.00000000E+00  0.00000000E+00  0.00000000E+00
  0.00000000E+00  0.00000000E+00  0.00000000E+00
  0.00000000E+00  0.00000000E+00  0.00000000E+00
  0.00000000E+00  0.00000000E+00  0.00000000E+00
  0.00000000E+00  0.00000000E+00  0.00000000E+00
  0.00000000E+00  0.00000000E+00  0.00000000E+00
  0.00000000E+00  0.00000000E+00  0.00000000E+00
  0.00000000E+00  0.00000000E+00  0.00000000E+00
  0.00000000E+00  0.00000000E+00  0.00000000E+00
  0.00000000E+00  0.00000000E+00  0.00000000E+00
  0.00000000E+00  0.00000000E+00  0.00000000E+00
  0.00000000E+00  0.00000000E+00  0.00000000E+00
  0.00000000E+00  0.00000000E+00  0.00000000E+00
  0.00000000E+00  0.00000000E+00  0.00000000E+00
  0.00000000E+00  0.00000000E+00  0.00000000E+00
  0.00000000E+00  0.00000000E+00  0.00000000E+00
  0.00000000E+00  0.00000000E+00  0.00000000E+00
  0.00000000E+00  0.00000000E+00  0.00000000E+00
  0.00000000E+00  0.00000000E+00  0.00000000E+00
  0.00000000E+00  0.00000000E+00  0.00000000E+00
  0.00000000E+00  0.00000000E+00  0.00000000E+00
  0.00000000E+00  0.00000000E+00  0.00000000E+00
  0.00000000E+00  0.00000000E+00  0.00000000E+00
  0.00000000E+00  0.00000000E+00  0.00000000E+00
  0.00000000E+00  0.00000000E+00  0.00000000E+00
  0.00000000E+00  0.00000000E+00  0.00000000E+00
  0.00000000E+00  0.00000000E+00  0.00000000E+00
  0.00000000E+00  0.00000000E+00  0.00000000E+00
  0.00000000E+00  0.00000000E+00  0.00000000E+00
  0.00000000E+00  0.00000000E+00  0.00000000E+00
  0.00000000E+00  0.00000000E+00  0.00000000E+00
  0.00000000E+00  0.00000000E+00  0.00000000E+00
  0.00000000E+00  0.00000000E+00  0.00000000E+00
  0.00000000E+00  0.00000000E+00  0.00000000E+00
  0.00000000E+00  0.00000000E+00  0.00000000E+00
  0.00000000E+00  0.00000000E+00  0.00000000E+00
  0.00000000E+00  0.00000000E+00  0.00000000E+00
  0.00000000E+00  0.00000000E+00  0.00000000E+00
  0.00000000E+00  0.00000000E+00  0.00000000E+00
  0.00000000E+00  0.00000000E+00  0.00000000E+00
  0.00000000E+00  0.00000000E+00  0.00000000E+00
