Ag Pd O                                 
   1.00000000000000     
    10.1349601359378347    0.0000000000000000   -5.8514219627098383
    -0.0000000000000006    9.6314918600000006    0.0000000000000006
     0.0000000000000000    0.0000000000000000   35.1085317762590137
   Ag   Pd   O 
    48    16     1
Selective dynamics
Direct
  0.3320825400000018  0.1250000000000000  0.4720137566666693   F   F   F
  0.0839587299999991  0.1250000000000000  0.3893058199999970   F   F   F
  0.0839587299999991  0.1250000000000000  0.4720137566666693   F   F   F
  0.1679174599999982  0.3750000000000000  0.3613195766666664   F   F   F
  0.4160412700000009  0.3750000000000000  0.4440275133333316   F   F   F
  0.4160412700000009  0.3750000000000000  0.3613195766666664   F   F   F
  0.1666666666666643  0.3750000000000000  0.4444444444444429   F   F   F
  0.3333333333333357  0.1250000000000000  0.3888888888888857   F   F   F
  0.3401745069580144  0.1175827087474204  0.6388914239093069   T   T   T
  0.0847346586999294  0.1242247037235984  0.5565181518049158   T   T   T
  0.0774563971620665  0.1182368898297455  0.6388092664656142   T   T   T
  0.1687670696967274  0.3741256642500659  0.5291630274753345   T   T   T
  0.4216943805718500  0.3756332428555993  0.6124433540499865   T   T   T
  0.4138083802907175  0.3749398468180303  0.5276960597603519   T   T   T
  0.1729883926267703  0.3814729817063167  0.6151880999138655   T   T   T
  0.3333333333333357  0.1250000000000000  0.5555555555555571   F   F   F
  0.3320825400000018  0.6250000000000000  0.4720137566666693   F   F   F
  0.0839587299999991  0.6250000000000000  0.3893058199999970   F   F   F
  0.0839587299999991  0.6250000000000000  0.4720137566666693   F   F   F
  0.1679174599999982  0.8750000000000000  0.3613195766666664   F   F   F
  0.4160412700000009  0.8750000000000000  0.4440275133333316   F   F   F
  0.4160412700000009  0.8750000000000000  0.3613195766666664   F   F   F
  0.1666666666666643  0.8750000000000000  0.4444444444444429   F   F   F
  0.3333333333333357  0.6250000000000000  0.3888888888888857   F   F   F
  0.3308250962397921  0.6269272435516413  0.6366326564875138   T   T   T
  0.0834212954521618  0.6224192598407257  0.5555306310747383   T   T   T
  0.0796544350263346  0.6268477672777948  0.6366184671715018   T   T   T
  0.1686222539774036  0.8755865613094969  0.5279762265910861   T   T   T
  0.4193967455175667  0.8746397285137348  0.6123774023171151   T   T   T
  0.4147143390972303  0.8748613961267964  0.5276668231233330   T   T   T
  0.1642629154186821  0.8712023032296017  0.6093843331537059   T   T   T
  0.3333333333333357  0.6250000000000000  0.5555555555555571   F   F   F
  0.8320825400000018  0.1250000000000000  0.4720137566666693   F   F   F
  0.5839587299999991  0.1250000000000000  0.3893058199999970   F   F   F
  0.5839587299999991  0.1250000000000000  0.4720137566666693   F   F   F
  0.6679174599999982  0.3750000000000000  0.3613195766666664   F   F   F
  0.9160412700000009  0.3750000000000000  0.4440275133333316   F   F   F
  0.9160412700000009  0.3750000000000000  0.3613195766666664   F   F   F
  0.6666666666666643  0.3750000000000000  0.4444444444444429   F   F   F
  0.8333333333333357  0.1250000000000000  0.3888888888888857   F   F   F
  0.8269058995439167  0.1239827779045299  0.6355944572633447   T   T   T
  0.5817764098970812  0.1257602985269202  0.5545231081620727   T   T   T
  0.5802470650382858  0.1240187335678584  0.6356539324649262   T   T   T
  0.6694644490946331  0.3749467556423127  0.5276594925732070   T   T   T
  0.9161765990157136  0.3758227113310539  0.6123983561512034   T   T   T
  0.9187671005125964  0.3742655927653900  0.5290869881907767   T   T   T
  0.6650963623386659  0.3747989377357825  0.6098058593089206   T   T   T
  0.8333333333333357  0.1250000000000000  0.5555555555555571   F   F   F
  0.8320825400000018  0.6250000000000000  0.4720137566666693   F   F   F
  0.5839587299999991  0.6250000000000000  0.3893058199999970   F   F   F
  0.5839587299999991  0.6250000000000000  0.4720137566666693   F   F   F
  0.6679174599999982  0.8750000000000000  0.3613195766666664   F   F   F
  0.9160412700000009  0.8750000000000000  0.4440275133333316   F   F   F
  0.9160412700000009  0.8750000000000000  0.3613195766666664   F   F   F
  0.6666666666666643  0.8750000000000000  0.4444444444444429   F   F   F
  0.8333333333333357  0.6250000000000000  0.3888888888888857   F   F   F
  0.8280567629951108  0.6251682010982407  0.6361291661094626   T   T   T
  0.5820659637206660  0.6247285197212733  0.5547177496086562   T   T   T
  0.5807915850992700  0.6252007429928241  0.6361449062772735   T   T   T
  0.6685266955151334  0.8747714465542060  0.5276132431132012   T   T   T
  0.9184497538423386  0.8750768500067068  0.6123757239446235   T   T   T
  0.9154607161252883  0.8754912334177334  0.5279520600181016   T   T   T
  0.6648501813172842  0.8744998165048088  0.6096742535495636   T   T   T
  0.8333333333333357  0.6250000000000000  0.5555555555555571   F   F   F
  0.2514136707469987  0.2510127940998217  0.6675038926560930   T   T   T
 
  0.00000000E+00  0.00000000E+00  0.00000000E+00
  0.00000000E+00  0.00000000E+00  0.00000000E+00
  0.00000000E+00  0.00000000E+00  0.00000000E+00
  0.00000000E+00  0.00000000E+00  0.00000000E+00
  0.00000000E+00  0.00000000E+00  0.00000000E+00
  0.00000000E+00  0.00000000E+00  0.00000000E+00
  0.00000000E+00  0.00000000E+00  0.00000000E+00
  0.00000000E+00  0.00000000E+00  0.00000000E+00
  0.00000000E+00  0.00000000E+00  0.00000000E+00
  0.00000000E+00  0.00000000E+00  0.00000000E+00
  0.00000000E+00  0.00000000E+00  0.00000000E+00
  0.00000000E+00  0.00000000E+00  0.00000000E+00
  0.00000000E+00  0.00000000E+00  0.00000000E+00
  0.00000000E+00  0.00000000E+00  0.00000000E+00
  0.00000000E+00  0.00000000E+00  0.00000000E+00
  0.00000000E+00  0.00000000E+00  0.00000000E+00
  0.00000000E+00  0.00000000E+00  0.00000000E+00
  0.00000000E+00  0.00000000E+00  0.00000000E+00
  0.00000000E+00  0.00000000E+00  0.00000000E+00
  0.00000000E+00  0.00000000E+00  0.00000000E+00
  0.00000000E+00  0.00000000E+00  0.00000000E+00
  0.00000000E+00  0.00000000E+00  0.00000000E+00
  0.00000000E+00  0.00000000E+00  0.00000000E+00
  0.00000000E+00  0.00000000E+00  0.00000000E+00
  0.00000000E+00  0.00000000E+00  0.00000000E+00
  0.00000000E+00  0.00000000E+00  0.00000000E+00
  0.00000000E+00  0.00000000E+00  0.00000000E+00
  0.00000000E+00  0.00000000E+00  0.00000000E+00
  0.00000000E+00  0.00000000E+00  0.00000000E+00
  0.00000000E+00  0.00000000E+00  0.00000000E+00
  0.00000000E+00  0.00000000E+00  0.00000000E+00
  0.00000000E+00  0.00000000E+00  0.00000000E+00
  0.00000000E+00  0.00000000E+00  0.00000000E+00
  0.00000000E+00  0.00000000E+00  0.00000000E+00
  0.00000000E+00  0.00000000E+00  0.00000000E+00
  0.00000000E+00  0.00000000E+00  0.00000000E+00
  0.00000000E+00  0.00000000E+00  0.00000000E+00
  0.00000000E+00  0.00000000E+00  0.00000000E+00
  0.00000000E+00  0.00000000E+00  0.00000000E+00
  0.00000000E+00  0.00000000E+00  0.00000000E+00
  0.00000000E+00  0.00000000E+00  0.00000000E+00
  0.00000000E+00  0.00000000E+00  0.00000000E+00
  0.00000000E+00  0.00000000E+00  0.00000000E+00
  0.00000000E+00  0.00000000E+00  0.00000000E+00
  0.00000000E+00  0.00000000E+00  0.00000000E+00
  0.00000000E+00  0.00000000E+00  0.00000000E+00
  0.00000000E+00  0.00000000E+00  0.00000000E+00
  0.00000000E+00  0.00000000E+00  0.00000000E+00
  0.00000000E+00  0.00000000E+00  0.00000000E+00
  0.00000000E+00  0.00000000E+00  0.00000000E+00
  0.00000000E+00  0.00000000E+00  0.00000000E+00
  0.00000000E+00  0.00000000E+00  0.00000000E+00
  0.00000000E+00  0.00000000E+00  0.00000000E+00
  0.00000000E+00  0.00000000E+00  0.00000000E+00
  0.00000000E+00  0.00000000E+00  0.00000000E+00
  0.00000000E+00  0.00000000E+00  0.00000000E+00
  0.00000000E+00  0.00000000E+00  0.00000000E+00
  0.00000000E+00  0.00000000E+00  0.00000000E+00
  0.00000000E+00  0.00000000E+00  0.00000000E+00
  0.00000000E+00  0.00000000E+00  0.00000000E+00
  0.00000000E+00  0.00000000E+00  0.00000000E+00
  0.00000000E+00  0.00000000E+00  0.00000000E+00
  0.00000000E+00  0.00000000E+00  0.00000000E+00
  0.00000000E+00  0.00000000E+00  0.00000000E+00
  0.00000000E+00  0.00000000E+00  0.00000000E+00
