Tl P Pd H O
 1.0000000000000000
     8.0763064799999995    0.0000000000000000    0.0000000000000005
    -0.0000000000000005    8.0763064799999995    0.0000000000000005
     0.0000000000000000    0.0000000000000000   28.5967706799999988
Tl P Pd H O
4 4 20 1 1
Selective dynamics
Cartesian
  2.0520251487002170  2.0069129743393788 16.5332794345261185   T   T   T
  0.0000000000000000  0.0000000000000000 12.8507521210279325   F   F   F
 -0.0000000000000001  2.0190766199999999 11.4423599496751791   F   F   F
 -0.0000000000000001  2.0190766199999999 14.2591442923806859   F   F   F
  2.0190766199999999  0.0000000000000000 11.4423599496751791   F   F   F
  2.0190766199999999  0.0000000000000000 14.2591442923806859   F   F   F
 -0.0483442525437567  0.1248982916176828 16.3841611330092540   T   T   T
  2.0417093448965384  6.0148908668397709 16.5986038739895569   T   T   T
 -0.0000000000000002  4.0381532399999998 12.8507521210279325   F   F   F
 -0.0000000000000004  6.0572298599999996 11.4423599496751791   F   F   F
 -0.0000000000000004  6.0572298599999996 14.2591442923806859   F   F   F
  2.0190766199999994  4.0381532399999998 11.4423599496751791   F   F   F
  2.0190766199999994  4.0381532399999998 14.2591442923806859   F   F   F
 -0.0069800159544686  3.9833943297938532 16.2858505199649493   T   T   T
  6.0300748790632426  2.0220982314901121 16.5686292319253674   T   T   T
  4.0381532399999998  0.0000000000000000 12.8507521210279325   F   F   F
  4.0381532399999998  2.0190766199999999 11.4423599496751791   F   F   F
  4.0381532399999998  2.0190766199999999 14.2591442923806859   F   F   F
  6.0572298599999996  0.0000000000000000 11.4423599496751791   F   F   F
  6.0572298599999996  0.0000000000000000 14.2591442923806859   F   F   F
  4.0634637334090513 -0.0214374287897954 16.2971109518651041   T   T   T
  6.0979567119920759  6.0474631730667099 16.5695675504787481   T   T   T
  4.0381532399999998  4.0381532399999998 12.8507521210279325   F   F   F
  4.0381532399999998  6.0572298599999996 11.4423599496751791   F   F   F
  4.0381532399999998  6.0572298599999996 14.2591442923806859   F   F   F
  6.0572298599999996  4.0381532399999998 11.4423599496751791   F   F   F
  6.0572298599999996  4.0381532399999998 14.2591442923806859   F   F   F
  4.0650605926433201  4.0359367905560504 16.3096085960962931   T   T   T
  0.9170413513223459  7.4934887308775835 18.8580543328537225   T   T   T
  0.4507154167178384  6.9466273265045686 18.1956828190398170   T   T   T
