Ag In S                                 
   1.00000000000000     
    14.4750361673258041    0.0000000000000000    0.0000000000000009
    -4.4500033945815796   13.7740386899994771    0.0000000000000009
     0.0000000000000000    0.0000000000000000   34.0720075092852923
   Ag   In   S 
    16    16    32
Selective dynamics
Direct
  0.0000000000000000  0.5000000000000000  0.4062500000000000   F   F   F
  0.2353803828470902  0.2500522008599972  0.5405359221754225   T   T   T
  0.2665495065471717  0.4775705329372713  0.5810159005914173   T   T   T
  0.5000000000000000  0.2500000000000000  0.4687500000000000   F   F   F
  0.0244302736162254  0.2412881876258339  0.5780688363618438   T   T   T
  0.2500000000000000  0.0000000000000000  0.4687500000000000   F   F   F
  0.5000219860538238  0.4970864435321971  0.5307610519173735   T   T   T
  0.2500000000000000  0.2500000000000000  0.4062500000000000   F   F   F
  0.4457305947483832  0.0648624306714041  0.5922364678491334   T   T   T
  0.1901424074999980  0.3151424074999980  0.4674287962499974   F   F   F
  0.4348575925000020  0.3098575925000020  0.4049287962499974   F   F   F
  0.1848575925000020  0.0598575925000020  0.5299287962499974   F   F   F
  0.4348575925000020  0.0598575925000020  0.4700712037500026   F   F   F
  0.1860151083236516  0.3103453289542060  0.6046137576911832   T   T   T
  0.1901424074999980  0.0651424074999980  0.4075712037500026   F   F   F
  0.4302356490634409  0.3131880868571955  0.5327847581729230   T   T   T
  0.0000000000000000  0.0000000000000000  0.4062500000000000   F   F   F
  0.2353915564748874  0.7499642327732872  0.5405324142728603   T   T   T
  0.2665250754323765  0.9775396203468176  0.5810016458421501   T   T   T
  0.5000000000000000  0.7500000000000000  0.4687500000000000   F   F   F
  0.0243989809594325  0.7412654743241944  0.5780787361464945   T   T   T
  0.2500000000000000  0.5000000000000000  0.4687500000000000   F   F   F
  0.5000421504352772  0.9970824252878643  0.5307681733263721   T   T   T
  0.2500000000000000  0.7500000000000000  0.4062500000000000   F   F   F
  0.4457383415758329  0.5648231301071860  0.5922508080526612   T   T   T
  0.1901424074999980  0.8151424074999980  0.4674287962499974   F   F   F
  0.4348575925000020  0.8098575925000020  0.4049287962499974   F   F   F
  0.1848575925000020  0.5598575925000020  0.5299287962499974   F   F   F
  0.4348575925000020  0.5598575925000020  0.4700712037500026   F   F   F
  0.1860226410822747  0.8102880770687904  0.6046008447228459   T   T   T
  0.1901424074999980  0.5651424074999980  0.4075712037500026   F   F   F
  0.4302327977233276  0.8131852479810604  0.5327991856753229   T   T   T
  0.5000000000000000  0.5000000000000000  0.4062500000000000   F   F   F
  0.7353538933349810  0.2501815153793743  0.5404733836729747   T   T   T
  0.7666216088156261  0.4776053801556941  0.5809910934713827   T   T   T
  0.0000000000000000  0.2500000000000000  0.4687500000000000   F   F   F
  0.5244829683248469  0.2413113387366863  0.5780558680593373   T   T   T
  0.7500000000000000  0.0000000000000000  0.4687500000000000   F   F   F
  0.0000037968466486  0.4970756034338208  0.5307322596431447   T   T   T
  0.7500000000000000  0.2500000000000000  0.4062500000000000   F   F   F
  0.9458308383048575  0.0647989789442818  0.5922546874295946   T   T   T
  0.6901424074999980  0.3151424074999980  0.4674287962499974   F   F   F
  0.9348575925000020  0.3098575925000020  0.4049287962499974   F   F   F
  0.6848575925000020  0.0598575925000020  0.5299287962499974   F   F   F
  0.9348575925000020  0.0598575925000020  0.4700712037500026   F   F   F
  0.6860411933313628  0.3103241501139209  0.6046023613957914   T   T   T
  0.6901424074999980  0.0651424074999980  0.4075712037500026   F   F   F
  0.9302585795804887  0.3131523014607183  0.5327719639249011   T   T   T
  0.5000000000000000  0.0000000000000000  0.4062500000000000   F   F   F
  0.7353753604755013  0.7500752508440911  0.5404826986409148   T   T   T
  0.7665989674640912  0.9775794466898091  0.5809782508059698   T   T   T
  0.0000000000000000  0.7500000000000000  0.4687500000000000   F   F   F
  0.5244531983733012  0.7412888357040259  0.5780708618007608   T   T   T
  0.7500000000000000  0.5000000000000000  0.4687500000000000   F   F   F
  0.0000258729608049  0.9970717564354956  0.5307410126643504   T   T   T
  0.7500000000000000  0.7500000000000000  0.4062500000000000   F   F   F
  0.9458429736717164  0.5647653519460576  0.5922678388986142   T   T   T
  0.6901424074999980  0.8151424074999980  0.4674287962499974   F   F   F
  0.9348575925000020  0.8098575925000020  0.4049287962499974   F   F   F
  0.6848575925000020  0.5598575925000020  0.5299287962499974   F   F   F
  0.9348575925000020  0.5598575925000020  0.4700712037500026   F   F   F
  0.6860388081640139  0.8102700099629132  0.6045938570298262   T   T   T
  0.6901424074999980  0.5651424074999980  0.4075712037500026   F   F   F
  0.9302501480023722  0.8131494684131439  0.5327814900083254   T   T   T
 
  0.00000000E+00  0.00000000E+00  0.00000000E+00
  0.00000000E+00  0.00000000E+00  0.00000000E+00
  0.00000000E+00  0.00000000E+00  0.00000000E+00
  0.00000000E+00  0.00000000E+00  0.00000000E+00
  0.00000000E+00  0.00000000E+00  0.00000000E+00
  0.00000000E+00  0.00000000E+00  0.00000000E+00
  0.00000000E+00  0.00000000E+00  0.00000000E+00
  0.00000000E+00  0.00000000E+00  0.00000000E+00
  0.00000000E+00  0.00000000E+00  0.00000000E+00
  0.00000000E+00  0.00000000E+00  0.00000000E+00
  0.00000000E+00  0.00000000E+00  0.00000000E+00
  0.00000000E+00  0.00000000E+00  0.00000000E+00
  0.00000000E+00  0.00000000E+00  0.00000000E+00
  0.00000000E+00  0.00000000E+00  0.00000000E+00
  0.00000000E+00  0.00000000E+00  0.00000000E+00
  0.00000000E+00  0.00000000E+00  0.00000000E+00
  0.00000000E+00  0.00000000E+00  0.00000000E+00
  0.00000000E+00  0.00000000E+00  0.00000000E+00
  0.00000000E+00  0.00000000E+00  0.00000000E+00
  0.00000000E+00  0.00000000E+00  0.00000000E+00
  0.00000000E+00  0.00000000E+00  0.00000000E+00
  0.00000000E+00  0.00000000E+00  0.00000000E+00
  0.00000000E+00  0.00000000E+00  0.00000000E+00
  0.00000000E+00  0.00000000E+00  0.00000000E+00
  0.00000000E+00  0.00000000E+00  0.00000000E+00
  0.00000000E+00  0.00000000E+00  0.00000000E+00
  0.00000000E+00  0.00000000E+00  0.00000000E+00
  0.00000000E+00  0.00000000E+00  0.00000000E+00
  0.00000000E+00  0.00000000E+00  0.00000000E+00
  0.00000000E+00  0.00000000E+00  0.00000000E+00
  0.00000000E+00  0.00000000E+00  0.00000000E+00
  0.00000000E+00  0.00000000E+00  0.00000000E+00
  0.00000000E+00  0.00000000E+00  0.00000000E+00
  0.00000000E+00  0.00000000E+00  0.00000000E+00
  0.00000000E+00  0.00000000E+00  0.00000000E+00
  0.00000000E+00  0.00000000E+00  0.00000000E+00
  0.00000000E+00  0.00000000E+00  0.00000000E+00
  0.00000000E+00  0.00000000E+00  0.00000000E+00
  0.00000000E+00  0.00000000E+00  0.00000000E+00
  0.00000000E+00  0.00000000E+00  0.00000000E+00
  0.00000000E+00  0.00000000E+00  0.00000000E+00
  0.00000000E+00  0.00000000E+00  0.00000000E+00
  0.00000000E+00  0.00000000E+00  0.00000000E+00
  0.00000000E+00  0.00000000E+00  0.00000000E+00
  0.00000000E+00  0.00000000E+00  0.00000000E+00
  0.00000000E+00  0.00000000E+00  0.00000000E+00
  0.00000000E+00  0.00000000E+00  0.00000000E+00
  0.00000000E+00  0.00000000E+00  0.00000000E+00
  0.00000000E+00  0.00000000E+00  0.00000000E+00
  0.00000000E+00  0.00000000E+00  0.00000000E+00
  0.00000000E+00  0.00000000E+00  0.00000000E+00
  0.00000000E+00  0.00000000E+00  0.00000000E+00
  0.00000000E+00  0.00000000E+00  0.00000000E+00
  0.00000000E+00  0.00000000E+00  0.00000000E+00
  0.00000000E+00  0.00000000E+00  0.00000000E+00
  0.00000000E+00  0.00000000E+00  0.00000000E+00
  0.00000000E+00  0.00000000E+00  0.00000000E+00
  0.00000000E+00  0.00000000E+00  0.00000000E+00
  0.00000000E+00  0.00000000E+00  0.00000000E+00
  0.00000000E+00  0.00000000E+00  0.00000000E+00
  0.00000000E+00  0.00000000E+00  0.00000000E+00
  0.00000000E+00  0.00000000E+00  0.00000000E+00
  0.00000000E+00  0.00000000E+00  0.00000000E+00
  0.00000000E+00  0.00000000E+00  0.00000000E+00
