Ag In S
 1.0000000000000000
    14.4750361673258041    0.0000000000000000    0.0000000000000009
    -4.4500033945815796   13.7740386899994771    0.0000000000000009
     0.0000000000000000    0.0000000000000000   34.0720075092852923
Ag In S
16 16 32
Selective dynamics
Cartesian
 -2.2250016972907889  6.8870193449997377 13.8417530506471493   F   F   F
  2.2944064121410861  3.4442286891651119 18.4171439993995207   T   T   T
  1.7331232549301205  6.5780749978816511 19.7963781279649140   T   T   T
  6.1250172350175074  3.4435096724998679 15.9712535199774806   F   F   F
 -0.7201041598348437  3.3235128317980824 19.6959657334045062   T   T   T
  3.6187590418314519  0.0000000000000002 15.9712535199774806   F   F   F
  5.0257999714684729  6.8468879054866765 18.0840945465649909   T   T   T
  2.5062581931860564  3.4435096724998679 13.8417530506471493   F   F   F
  6.1633284431978819  0.8934176295953088 20.1786853798283303   T   T   T
  1.3499334423532898  4.3407837137645826 15.9262374558861879   F   F   F
  4.9157120406118509  4.2679904674850908 13.7967369865558549   F   F   F
  2.4094538474257967  0.8244807949852210 18.0557379252165155   F   F   F
  6.0282128892572482  0.8244807949852241 16.0162695840687768   F   F   F
  1.3115376533151009  4.2747085682758392 20.6004044922710783   T   T   T
  2.4624342909986878  0.8972740412647121 13.8867691147384456   F   F   F
  4.8339885310091120  4.3138648256179719 18.1530462813005649   T   T   T
 -4.4500033945815787 13.7740386899994753 13.8417530506471493   F   F   F
  0.0699579118012283 10.3300363583350148 18.4170244781169075   T   T   T
 -0.4920945224984306 13.4646685516644773 19.7958924400408307   T   T   T
  3.9000155377267176 10.3305290174996074 15.9712535199774806   F   F   F
 -2.9454577451950508 10.2102193229022280 19.6963030389414655   T   T   T
  1.3937573445406621  6.8870193449997386 15.9712535199774806   F   F   F
  2.8011080355293561 13.7338519030335426 18.0843371872658807   T   T   T
  0.2812564958952666 10.3305290174996074 13.8417530506471493   F   F   F
  3.9386137691588501  7.7798956471029461 20.1791739793505442   T   T   T
 -0.8750682549375000 11.2278030587643212 15.9262374558861879   F   F   F
  2.6907103433210611 11.1550098124848294 13.7967369865558549   F   F   F
  0.1844521501350069  7.7115001399849596 18.0557379252165155   F   F   F
  3.8032111919664584  7.7115001399849623 16.0162695840687768   F   F   F
 -0.9131002359377429 11.1609393235907604 20.5999645215169913   T   T   T
  0.2374325937078980  7.7842933862644506 13.8867691147384456   F   F   F
  2.6089581934755048 11.2008450678279683 18.1535378552706312   T   T   T
  5.0125163863721127  6.8870193449997377 13.8417530506471493   F   F   F
  9.5309656091079624  3.4460098723582004 18.4150131870744715   T   T   T
  8.9715299512964428  6.5785549848164573 19.7955328995848561   T   T   T
 13.3625353186804094  3.4435096724998679 15.9712535199774806   F   F   F
  6.5180736591193238  3.3238317160946580 19.6955238773042822   T   T   T
 10.8562771254943549  0.0000000000000002 15.9712535199774806   F   F   F
 12.2631030041741802  6.8467385935523115 18.0831135359810631   T   T   T
  9.7437762768489584  3.4435096724998679 13.8417530506471493   F   F   F
 13.4025799163674098  0.8925436430509884 20.1793061575106734   T   T   T
  8.5874515260161921  4.3407837137645826 15.9262374558861879   F   F   F
 12.1532301242747529  4.2679904674850908 13.7967369865558549   F   F   F
  9.6469719310886983  0.8244807949852210 18.0557379252165155   F   F   F
 13.2657309729201494  0.8244807949852241 16.0162695840687768   F   F   F
  8.5495275643192468  4.2744168501103399 20.6000161976089622   T   T   T
  9.6999523746615903  0.8972740412647121 13.8867691147384456   F   F   F
 12.0719977798715057  4.3133719161822652 18.1526103555860097   T   T   T
  2.7875146890813238 13.7740386899994753 13.8417530506471493   F   F   F
  7.3067475269952524 10.3315655255375489 18.4153305667321163   T   T   T
  6.7463159236345120 13.4652171212537048 19.7950953241924310   T   T   T
 11.1375336213896201 10.3305290174996074 15.9712535199774806   F   F   F
  4.2927411792748877 10.2105411034519395 19.6960347441744545   T   T   T
  8.6312754282035655  6.8870193449997386 15.9712535199774806   F   F   F
 10.0384379785898545 13.7337049498482209 18.0834117689853500   T   T   T
  7.5187745795581691 10.3305290174996074 13.8417530506471493   F   F   F
 11.1779035192071188  7.7790998084761460 20.1797542544616775   T   T   T
  6.3624498287254028 11.2278030587643212 15.9262374558861879   F   F   F
  9.9282284269839636 11.1550098124848294 13.7967369865558549   F   F   F
  7.4219702337979090  7.7115001399849596 18.0557379252165155   F   F   F
 11.0407292756293600  7.7115001399849623 16.0162695840687768   F   F   F
  6.3247322655005309 11.1606904665754385 20.5997264367879289   T   T   T
  7.4749506773708010  7.7842933862644506 13.8867691147384456   F   F   F
  9.8468866422537928 11.2003522386751779 18.1529349283717671   T   T   T
