Te Au                                   
   1.00000000000000     
    10.3816238299313373    0.0000000000000000    0.0000000000000006
     5.1807364356534356    7.4076454022250253   -4.4682037099999983
     0.0000000000000000    0.0000000000000000   35.7456296800000004
   Te   Au
    16     8
Selective dynamics
Direct
  0.6361740999999981  0.9419846699999965  0.4145147566762475   F   F   F
  0.8623008100000007  0.0643471699999978  0.4834764129262439   F   F   F
  0.3623008100000007  0.0643471699999978  0.4869988379262438   F   F   F
  0.6124078200000014  0.5639733900000010  0.3682567779262484   F   F   F
  0.1124078200000014  0.5639733900000010  0.4771250279262489   F   F   F
  0.1361740999999981  0.9419846699999965  0.4003698691762452   F   F   F
  0.8832581599999969  0.4426067300000014  0.4011550379262445   F   F   F
  0.3832581599999969  0.4426067300000014  0.4138851029262440   F   F   F
  0.6246210099999985  0.2525398800000005  0.4476333091762470   F   F   F
  0.3736381000000009  0.7528481599999992  0.4468165354262439   F   F   F
  0.8736381000000009  0.7528481599999992  0.4457839629262494   F   F   F
  0.1246210099999985  0.2525398800000005  0.4448901191762431   F   F   F
  0.5867632047686584  0.9531925100193774  0.5478517553169411   T   T   T
  0.8514948026750631  0.0789663650876093  0.6009326433068480   T   T   T
  0.3469353922842231  0.0722940488511696  0.6143105299900427   T   T   T
  0.6124078200000014  0.5639733900000010  0.4932567779262484   F   F   F
  0.0862657663106106  0.5866340716665093  0.6081687385716492   T   T   T
  0.1348090066728815  0.9556937941854073  0.5269736228852153   T   T   T
  0.8573311369653496  0.4780098008557019  0.5359957545757439   T   T   T
  0.3757370073713204  0.4708257278198431  0.5541408633891507   T   T   T
  0.6302203210033852  0.2467641509476337  0.5692417115216273   T   T   T
  0.3689226452348677  0.7640496460952519  0.5756486044425912   T   T   T
  0.8596927424443450  0.7754174701681578  0.5717163877050737   T   T   T
  0.1195450328750951  0.2678456514600285  0.5686437091450856   T   T   T
 
  0.00000000E+00  0.00000000E+00  0.00000000E+00
  0.00000000E+00  0.00000000E+00  0.00000000E+00
  0.00000000E+00  0.00000000E+00  0.00000000E+00
  0.00000000E+00  0.00000000E+00  0.00000000E+00
  0.00000000E+00  0.00000000E+00  0.00000000E+00
  0.00000000E+00  0.00000000E+00  0.00000000E+00
  0.00000000E+00  0.00000000E+00  0.00000000E+00
  0.00000000E+00  0.00000000E+00  0.00000000E+00
  0.00000000E+00  0.00000000E+00  0.00000000E+00
  0.00000000E+00  0.00000000E+00  0.00000000E+00
  0.00000000E+00  0.00000000E+00  0.00000000E+00
  0.00000000E+00  0.00000000E+00  0.00000000E+00
  0.00000000E+00  0.00000000E+00  0.00000000E+00
  0.00000000E+00  0.00000000E+00  0.00000000E+00
  0.00000000E+00  0.00000000E+00  0.00000000E+00
  0.00000000E+00  0.00000000E+00  0.00000000E+00
  0.00000000E+00  0.00000000E+00  0.00000000E+00
  0.00000000E+00  0.00000000E+00  0.00000000E+00
  0.00000000E+00  0.00000000E+00  0.00000000E+00
  0.00000000E+00  0.00000000E+00  0.00000000E+00
  0.00000000E+00  0.00000000E+00  0.00000000E+00
  0.00000000E+00  0.00000000E+00  0.00000000E+00
  0.00000000E+00  0.00000000E+00  0.00000000E+00
  0.00000000E+00  0.00000000E+00  0.00000000E+00
