Te Au
 1.0000000000000000
    10.3816238299313373    0.0000000000000000    0.0000000000000006
     5.1807364356534356    7.4076454022250253   -4.4682037099999983
     0.0000000000000000    0.0000000000000000   35.7456296800000004
Te Au
16 8
Selective dynamics
Cartesian
 11.4846944982410992  6.9778884096919578 10.6081115917872708   F   F   F
  9.2854483658152791  0.4766610179966938 16.9946525517543527   F   F   F
  4.0946364508496105  0.4766610179966938 17.1205638513799272   F   F   F
  9.2795851080602851  4.1777148894107619 10.6436224173623124   F   F   F
  4.0887731930946165  4.1777148894107610 14.5351865657719728   F   F   F
  6.2938825832754306  6.9778884096919578 10.1024936813470099   F   F   F
 11.4626827746137252  3.2786737084783537 12.3618823969209757   F   F   F
  6.2718708596480592  3.2786737084783546 12.8169265862133077   F   F   F
  7.7929229198633259  1.8707258809604601 14.8725348735080800   F   F   F
  7.7792780957569150  5.5768322109975710 12.6078594686685186   F   F   F
 12.9700900107225845  5.5768322109975710 12.5709495144657666   F   F   F
  2.6021110048976572  1.8707258809604601 14.7744778196262025   F   F   F
 11.0297940360025155  7.0609121142803710 15.3242476554845233   T   T   T
  9.2490026593146073  0.5849548312716343 21.1278779248203534   T   T   T
  3.9762891489486707  0.5355286785806220 21.6358921762608141   T   T   T
  9.2795851080602851  4.1777148894107619 15.1118261273623133   F   F   F
  3.9347752447159428  4.3455771837689623 19.1181739765021597   T   T   T
  6.3507340570287711  7.0794407404325179 14.5667694179796570   T   T   T
 11.3769321535541650  3.5409271035272551 17.0236605875169751   T   T   T
  6.3399842724725186  3.4877100379339119 17.7043688294559125   T   T   T
  7.8211303304631876  1.8279413282012020 19.2453109237022169   T   T   T
  7.7883559653454242  5.6598088479691508 17.1629923769065869   T   T   T
 12.9422402019216189  5.7440176576961388 16.9716390598887621   T   T   T
  2.6287092876963163  1.9841056085438387 19.1297385134007314   T   T   T
