Ag Hg Pd H O                            
   1.00000000000000     
     9.3252902844487018    0.0000000000000000    0.0000000000000006
    -0.0000000000000008   13.1879519933334119    0.0000000000000008
     0.0000000000000000    0.0000000000000000   37.3011611377948071
   Ag   Hg   Pd   H    O 
    16    16    32     1     1
Selective dynamics
Direct
  0.0000000000000000  0.0000000000000000  0.4687500000000000   F   F   F
  0.9952921194417002  0.0000354091516428  0.5942478858927487   T   T   T
  0.2500000000000000  0.2500000000000000  0.4062500000000000   F   F   F
  0.2500000000000000  0.2500000000000000  0.5312500000000000   F   F   F
  0.9997166185784181  0.2528096781674520  0.5965053959422733   T   T   T
  0.0000000000000000  0.2500000000000000  0.4687500000000000   F   F   F
  0.2500000000000000  0.0000000000000000  0.4062500000000000   F   F   F
  0.2500000000000000  0.0000000000000000  0.5312500000000000   F   F   F
  0.0000000000000000  0.3750000000000000  0.4062500000000000   F   F   F
  0.0000000000000000  0.3750000000000000  0.5312500000000000   F   F   F
  0.2469858998913850  0.3759117164301600  0.5912130063143834   T   T   T
  0.2500000000000000  0.3750000000000000  0.4687500000000000   F   F   F
  0.2447878990446384  0.1263959143514484  0.5908497250409397   T   T   T
  0.2500000000000000  0.1250000000000000  0.4687500000000000   F   F   F
  0.0000000000000000  0.1250000000000000  0.4062500000000000   F   F   F
  0.0000000000000000  0.1250000000000000  0.5312500000000000   F   F   F
  0.0000000000000000  0.5000000000000000  0.4687500000000000   F   F   F
  0.9956439267607422  0.4998966026701837  0.5950093201731264   T   T   T
  0.2500000000000000  0.7500000000000000  0.4062500000000000   F   F   F
  0.2500000000000000  0.7500000000000000  0.5312500000000000   F   F   F
  0.0013670542617490  0.7467646710069573  0.5966122057092420   T   T   T
  0.0000000000000000  0.7500000000000000  0.4687500000000000   F   F   F
  0.2500000000000000  0.5000000000000000  0.4062500000000000   F   F   F
  0.2500000000000000  0.5000000000000000  0.5312500000000000   F   F   F
  0.0000000000000000  0.8750000000000000  0.4062500000000000   F   F   F
  0.0000000000000000  0.8750000000000000  0.5312500000000000   F   F   F
  0.2441916046613102  0.8739644645175915  0.5908203061849449   T   T   T
  0.2500000000000000  0.8750000000000000  0.4687500000000000   F   F   F
  0.2473502062667237  0.6234142124714595  0.5912103493464187   T   T   T
  0.2500000000000000  0.6250000000000000  0.4687500000000000   F   F   F
  0.0000000000000000  0.6250000000000000  0.4062500000000000   F   F   F
  0.0000000000000000  0.6250000000000000  0.5312500000000000   F   F   F
  0.5000000000000000  0.0000000000000000  0.4687500000000000   F   F   F
  0.4920619629898297  0.0001821776351605  0.5952334626951981   T   T   T
  0.7500000000000000  0.2500000000000000  0.4062500000000000   F   F   F
  0.7500000000000000  0.2500000000000000  0.5312500000000000   F   F   F
  0.4938828054467166  0.2520370517381281  0.5964276024940247   T   T   T
  0.5000000000000000  0.2500000000000000  0.4687500000000000   F   F   F
  0.7500000000000000  0.0000000000000000  0.4062500000000000   F   F   F
  0.7500000000000000  0.0000000000000000  0.5312500000000000   F   F   F
  0.5000000000000000  0.3750000000000000  0.4062500000000000   F   F   F
  0.5000000000000000  0.3750000000000000  0.5312500000000000   F   F   F
  0.7464964251850077  0.3738872423302482  0.5910300549072502   T   T   T
  0.7500000000000000  0.3750000000000000  0.4687500000000000   F   F   F
  0.7495702954807584  0.1364198326854691  0.5925688167460592   T   T   T
  0.7500000000000000  0.1250000000000000  0.4687500000000000   F   F   F
  0.5000000000000000  0.1250000000000000  0.4062500000000000   F   F   F
  0.5000000000000000  0.1250000000000000  0.5312500000000000   F   F   F
  0.5000000000000000  0.5000000000000000  0.4687500000000000   F   F   F
  0.4985862421883240  0.4999940306954471  0.5950320802677567   T   T   T
  0.7500000000000000  0.7500000000000000  0.4062500000000000   F   F   F
  0.7500000000000000  0.7500000000000000  0.5312500000000000   F   F   F
  0.4936949646286664  0.7481093230849680  0.5964434988029481   T   T   T
  0.5000000000000000  0.7500000000000000  0.4687500000000000   F   F   F
  0.7500000000000000  0.5000000000000000  0.4062500000000000   F   F   F
  0.7500000000000000  0.5000000000000000  0.5312500000000000   F   F   F
  0.5000000000000000  0.8750000000000000  0.4062500000000000   F   F   F
  0.5000000000000000  0.8750000000000000  0.5312500000000000   F   F   F
  0.7499500866142625  0.8623436600535399  0.5927994168637198   T   T   T
  0.7500000000000000  0.8750000000000000  0.4687500000000000   F   F   F
  0.7468595907185360  0.6262744775726929  0.5910707779188158   T   T   T
  0.7500000000000000  0.6250000000000000  0.4687500000000000   F   F   F
  0.5000000000000000  0.6250000000000000  0.4062500000000000   F   F   F
  0.5000000000000000  0.6250000000000000  0.5312500000000000   F   F   F
  0.7203563266358231  0.9995732564984792  0.6548524511948628   T   T   T
  0.7148121184930289  0.9997198450200528  0.6287836355688015   T   T   T
 
  0.00000000E+00  0.00000000E+00  0.00000000E+00
  0.00000000E+00  0.00000000E+00  0.00000000E+00
  0.00000000E+00  0.00000000E+00  0.00000000E+00
  0.00000000E+00  0.00000000E+00  0.00000000E+00
  0.00000000E+00  0.00000000E+00  0.00000000E+00
  0.00000000E+00  0.00000000E+00  0.00000000E+00
  0.00000000E+00  0.00000000E+00  0.00000000E+00
  0.00000000E+00  0.00000000E+00  0.00000000E+00
  0.00000000E+00  0.00000000E+00  0.00000000E+00
  0.00000000E+00  0.00000000E+00  0.00000000E+00
  0.00000000E+00  0.00000000E+00  0.00000000E+00
  0.00000000E+00  0.00000000E+00  0.00000000E+00
  0.00000000E+00  0.00000000E+00  0.00000000E+00
  0.00000000E+00  0.00000000E+00  0.00000000E+00
  0.00000000E+00  0.00000000E+00  0.00000000E+00
  0.00000000E+00  0.00000000E+00  0.00000000E+00
  0.00000000E+00  0.00000000E+00  0.00000000E+00
  0.00000000E+00  0.00000000E+00  0.00000000E+00
  0.00000000E+00  0.00000000E+00  0.00000000E+00
  0.00000000E+00  0.00000000E+00  0.00000000E+00
  0.00000000E+00  0.00000000E+00  0.00000000E+00
  0.00000000E+00  0.00000000E+00  0.00000000E+00
  0.00000000E+00  0.00000000E+00  0.00000000E+00
  0.00000000E+00  0.00000000E+00  0.00000000E+00
  0.00000000E+00  0.00000000E+00  0.00000000E+00
  0.00000000E+00  0.00000000E+00  0.00000000E+00
  0.00000000E+00  0.00000000E+00  0.00000000E+00
  0.00000000E+00  0.00000000E+00  0.00000000E+00
  0.00000000E+00  0.00000000E+00  0.00000000E+00
  0.00000000E+00  0.00000000E+00  0.00000000E+00
  0.00000000E+00  0.00000000E+00  0.00000000E+00
  0.00000000E+00  0.00000000E+00  0.00000000E+00
  0.00000000E+00  0.00000000E+00  0.00000000E+00
  0.00000000E+00  0.00000000E+00  0.00000000E+00
  0.00000000E+00  0.00000000E+00  0.00000000E+00
  0.00000000E+00  0.00000000E+00  0.00000000E+00
  0.00000000E+00  0.00000000E+00  0.00000000E+00
  0.00000000E+00  0.00000000E+00  0.00000000E+00
  0.00000000E+00  0.00000000E+00  0.00000000E+00
  0.00000000E+00  0.00000000E+00  0.00000000E+00
  0.00000000E+00  0.00000000E+00  0.00000000E+00
  0.00000000E+00  0.00000000E+00  0.00000000E+00
  0.00000000E+00  0.00000000E+00  0.00000000E+00
  0.00000000E+00  0.00000000E+00  0.00000000E+00
  0.00000000E+00  0.00000000E+00  0.00000000E+00
  0.00000000E+00  0.00000000E+00  0.00000000E+00
  0.00000000E+00  0.00000000E+00  0.00000000E+00
  0.00000000E+00  0.00000000E+00  0.00000000E+00
  0.00000000E+00  0.00000000E+00  0.00000000E+00
  0.00000000E+00  0.00000000E+00  0.00000000E+00
  0.00000000E+00  0.00000000E+00  0.00000000E+00
  0.00000000E+00  0.00000000E+00  0.00000000E+00
  0.00000000E+00  0.00000000E+00  0.00000000E+00
  0.00000000E+00  0.00000000E+00  0.00000000E+00
  0.00000000E+00  0.00000000E+00  0.00000000E+00
  0.00000000E+00  0.00000000E+00  0.00000000E+00
  0.00000000E+00  0.00000000E+00  0.00000000E+00
  0.00000000E+00  0.00000000E+00  0.00000000E+00
  0.00000000E+00  0.00000000E+00  0.00000000E+00
  0.00000000E+00  0.00000000E+00  0.00000000E+00
  0.00000000E+00  0.00000000E+00  0.00000000E+00
  0.00000000E+00  0.00000000E+00  0.00000000E+00
  0.00000000E+00  0.00000000E+00  0.00000000E+00
  0.00000000E+00  0.00000000E+00  0.00000000E+00
  0.00000000E+00  0.00000000E+00  0.00000000E+00
  0.00000000E+00  0.00000000E+00  0.00000000E+00
