Ag Hg Pd H O
 1.0000000000000000
     9.3252902844487018    0.0000000000000000    0.0000000000000006
    -0.0000000000000008   13.1879519933334119    0.0000000000000008
     0.0000000000000000    0.0000000000000000   37.3011611377948071
Ag Hg Pd H O
16 16 32 1 1
Selective dynamics
Cartesian
  0.0000000000000000  0.0000000000000000 17.4849192833413163   F   F   F
 -0.0439023528306279  0.0004669741920225 22.1661361474794241   T   T   T
  2.3313225711121763  3.2969879983333530 15.1535967122291400   F   F   F
  2.3313225711121763  3.2969879983333530 19.8162418544534908   F   F   F
 -0.0026426140174467  3.3340418991223859 22.2503438936069280   T   T   T
 -0.0000000000000002  3.2969879983333530 17.4849192833413163   F   F   F
  2.3313225711121763  0.0000000000000000 15.1535967122291400   F   F   F
  2.3313225711121763  0.0000000000000000 19.8162418544534908   F   F   F
 -0.0000000000000003  4.9454819975000293 15.1535967122291400   F   F   F
 -0.0000000000000003  4.9454819975000293 19.8162418544534908   F   F   F
  2.3032152126529351  4.9575056700124707 22.0529316152929233   T   T   T
  2.3313225711121750  4.9454819975000293 17.4849192833413163   F   F   F
  2.2827182167115780  1.6669032506203807 22.0393808019739801   T   T   T
  2.3313225711121754  1.6484939991666780 17.4849192833413163   F   F   F
 -0.0000000000000001  1.6484939991666758 15.1535967122291400   F   F   F
 -0.0000000000000001  1.6484939991666772 19.8162418544534908   F   F   F
 -0.0000000000000004  6.5939759966667060 17.4849192833413163   F   F   F
 -0.0406216474564193  6.5926123976448769 22.1945385302674687   T   T   T
  2.3313225711121759  9.8909639950000585 15.1535967122291400   F   F   F
  2.3313225711121759  9.8909639950000585 19.8162418544534908   F   F   F
  0.0127481778254144  9.8482966315571705 22.2543280219356667   T   T   T
 -0.0000000000000006  9.8909639950000585 17.4849192833413163   F   F   F
  2.3313225711121759  6.5939759966667060 15.1535967122291400   F   F   F
  2.3313225711121759  6.5939759966667060 19.8162418544534908   F   F   F
 -0.0000000000000007 11.5394579941667352 15.1535967122291400   F   F   F
 -0.0000000000000007 11.5394579941667352 19.8162418544534908   F   F   F
  2.2771575984920438 11.5258014019373540 22.0382834444858737   T   T   T
  2.3313225711121746 11.5394579941667352 17.4849192833413163   F   F   F
  2.3066124753554273  8.2215567060353365 22.0528325073026146   T   T   T
  2.3313225711121750  8.2424699958333836 17.4849192833413163   F   F   F
 -0.0000000000000005  8.2424699958333818 15.1535967122291400   F   F   F
 -0.0000000000000005  8.2424699958333836 19.8162418544534908   F   F   F
  4.6626451422243509  0.0000000000000000 17.4849192833413163   F   F   F
  4.5886206428157994  0.0024025499067335 22.2028993066010436   T   T   T
  6.9939677133365272  3.2969879983333530 15.1535967122291400   F   F   F
  6.9939677133365272  3.2969879983333530 19.8162418544534908   F   F   F
  4.6056005272885319  3.3238525388637217 22.2474421076581486   T   T   T
  4.6626451422243509  3.2969879983333530 17.4849192833413163   F   F   F
  6.9939677133365272  0.0000000000000000 15.1535967122291400   F   F   F
  6.9939677133365272  0.0000000000000000 19.8162418544534908   F   F   F
  4.6626451422243509  4.9454819975000293 15.1535967122291400   F   F   F
  4.6626451422243509  4.9454819975000293 19.8162418544534908   F   F   F
  6.9612958611534665  4.9308070027711084 22.0461073153749432   T   T   T
  6.9939677133365254  4.9454819975000293 17.4849192833413163   F   F   F
  6.9899605939580667  1.7990982043945409 22.1035049186771495   T   T   T
  6.9939677133365263  1.6484939991666780 17.4849192833413163   F   F   F
  4.6626451422243509  1.6484939991666758 15.1535967122291400   F   F   F
  4.6626451422243509  1.6484939991666772 19.8162418544534908   F   F   F
  4.6626451422243509  6.5939759966667060 17.4849192833413163   F   F   F
  4.6494614402385697  6.5938972737648163 22.1953875082249716   T   T   T
  6.9939677133365272  9.8909639950000585 15.1535967122291400   F   F   F
  6.9939677133365272  9.8909639950000585 19.8162418544534908   F   F   F
  4.6038488571329754  9.8660298386096859 22.2480350584387772   T   T   T
  4.6626451422243509  9.8909639950000585 17.4849192833413163   F   F   F
  6.9939677133365272  6.5939759966667060 15.1535967122291400   F   F   F
  6.9939677133365272  6.5939759966667060 19.8162418544534908   F   F   F
  4.6626451422243509 11.5394579941667352 15.1535967122291400   F   F   F
  4.6626451422243509 11.5394579941667352 19.8162418544534908   F   F   F
  6.9935022565254528 11.3725467905415307 22.1121065708244124   T   T   T
  6.9939677133365254 11.5394579941667352 17.4849192833413163   F   F   F
  6.9646824851749258  8.2592777448786379 22.0476263309915659   T   T   T
  6.9939677133365263  8.2424699958333836 17.4849192833413163   F   F   F
  4.6626451422243509  8.2424699958333818 15.1535967122291400   F   F   F
  4.6626451422243509  8.2424699958333836 19.8162418544534908   F   F   F
  6.7175318541181825 -0.0056278728114877 24.4267568034994440   T   T   T
  6.6658305037892616 -0.0036946704262255 23.4543597111603894   T   T   T
