Cu Ge Se                                
   1.00000000000000     
    11.3870633164235322    0.0000000000000000    1.0799077969257329
     5.6391494895465444   11.9196569090682516    1.1133854447839220
     0.0000000000000000    0.0000000000000000   30.2876347857077874
   Cu   Ge   Se
    16     8    32
Selective dynamics
Direct
  0.3958333333333357  0.4375000000000000  0.5416666666666643   F   F   F
  0.1687191501913929  0.2979113823042852  0.6138086700774537   T   T   T
  0.3125000000000000  0.1875000000000000  0.3750000000000000   F   F   F
  0.1041666666666643  0.0625000000000000  0.4583333333333357   F   F   F
  0.0491700096981376  0.1249594881221725  0.5856787668484813   T   T   T
  0.4583333333333357  0.3750000000000000  0.4166666666666643   F   F   F
  0.4870503255604035  0.4716523409202367  0.6052628768837707   T   T   T
  0.1490420493110776  0.1436424240909702  0.6484587016848735   T   T   T
  0.3458721246560899  0.2819956680016134  0.5626827763007540   T   T   T
  0.2003224791666653  0.0970231725000019  0.5198710083333324   F   F   F
  0.4023194500000002  0.2182213549999972  0.4390722199999999   F   F   F
  0.0572811558333299  0.4029768274999981  0.4801289916666676   F   F   F
  0.2567435816666688  0.0317786450000028  0.3942611133333358   F   F   F
  0.1169891458333367  0.3470231725000019  0.3532043416666681   F   F   F
  0.3958333333333357  0.9375000000000000  0.5416666666666643   F   F   F
  0.1687395362719641  0.7980232326452565  0.6137538485675265   T   T   T
  0.3125000000000000  0.6875000000000000  0.3750000000000000   F   F   F
  0.1041666666666643  0.5625000000000000  0.4583333333333357   F   F   F
  0.0491561192633441  0.6249393364247240  0.5856840708427811   T   T   T
  0.4583333333333357  0.8750000000000000  0.4166666666666643   F   F   F
  0.4869242650284420  0.9717432771623109  0.6052789431256755   T   T   T
  0.1489073361935738  0.6438173793028739  0.6484577080356217   T   T   T
  0.3459135512951264  0.7820056077976076  0.5626415503122146   T   T   T
  0.2003224791666653  0.5970231725000019  0.5198710083333324   F   F   F
  0.4023194500000002  0.7182213549999972  0.4390722199999999   F   F   F
  0.0572811558333299  0.9029768274999981  0.4801289916666676   F   F   F
  0.2567435816666688  0.5317786450000028  0.3942611133333358   F   F   F
  0.1169891458333367  0.8470231725000019  0.3532043416666681   F   F   F
  0.8958333333333357  0.4375000000000000  0.5416666666666643   F   F   F
  0.6687455891580996  0.2980223365584251  0.6138248362814807   T   T   T
  0.8125000000000000  0.1875000000000000  0.3750000000000000   F   F   F
  0.6041666666666643  0.0625000000000000  0.4583333333333357   F   F   F
  0.5491481321136007  0.1249254664940835  0.5856253850024444   T   T   T
  0.9583333333333357  0.3750000000000000  0.4166666666666643   F   F   F
  0.9870991679072390  0.4715951001631993  0.6052366820039623   T   T   T
  0.6498662294391977  0.1432239591351134  0.6482884281103978   T   T   T
  0.8458937463771576  0.2820983148739344  0.5627653105706898   T   T   T
  0.7003224791666653  0.0970231725000019  0.5198710083333324   F   F   F
  0.9023194500000002  0.2182213549999972  0.4390722199999999   F   F   F
  0.5572811558333299  0.4029768274999981  0.4801289916666676   F   F   F
  0.7567435816666688  0.0317786450000028  0.3942611133333358   F   F   F
  0.6169891458333367  0.3470231725000019  0.3532043416666681   F   F   F
  0.8958333333333357  0.9375000000000000  0.5416666666666643   F   F   F
  0.6687525597880182  0.7981279879200471  0.6137717729828083   T   T   T
  0.8125000000000000  0.6875000000000000  0.3750000000000000   F   F   F
  0.6041666666666643  0.5625000000000000  0.4583333333333357   F   F   F
  0.5491269274961894  0.6249070107097197  0.5856256996581948   T   T   T
  0.9583333333333357  0.8750000000000000  0.4166666666666643   F   F   F
  0.9869773680355465  0.9716792911270389  0.6052462947362969   T   T   T
  0.6497563808004472  0.6433792715429902  0.6482798169112911   T   T   T
  0.8459464780111645  0.7821088284359945  0.5627319474203176   T   T   T
  0.7003224791666653  0.5970231725000019  0.5198710083333324   F   F   F
  0.9023194500000002  0.7182213549999972  0.4390722199999999   F   F   F
  0.5572811558333370  0.9029768274999981  0.4801289916666676   F   F   F
  0.7567435816666688  0.5317786450000028  0.3942611133333358   F   F   F
  0.6169891458333367  0.8470231725000019  0.3532043416666681   F   F   F
 
  0.00000000E+00  0.00000000E+00  0.00000000E+00
  0.00000000E+00  0.00000000E+00  0.00000000E+00
  0.00000000E+00  0.00000000E+00  0.00000000E+00
  0.00000000E+00  0.00000000E+00  0.00000000E+00
  0.00000000E+00  0.00000000E+00  0.00000000E+00
  0.00000000E+00  0.00000000E+00  0.00000000E+00
  0.00000000E+00  0.00000000E+00  0.00000000E+00
  0.00000000E+00  0.00000000E+00  0.00000000E+00
  0.00000000E+00  0.00000000E+00  0.00000000E+00
  0.00000000E+00  0.00000000E+00  0.00000000E+00
  0.00000000E+00  0.00000000E+00  0.00000000E+00
  0.00000000E+00  0.00000000E+00  0.00000000E+00
  0.00000000E+00  0.00000000E+00  0.00000000E+00
  0.00000000E+00  0.00000000E+00  0.00000000E+00
  0.00000000E+00  0.00000000E+00  0.00000000E+00
  0.00000000E+00  0.00000000E+00  0.00000000E+00
  0.00000000E+00  0.00000000E+00  0.00000000E+00
  0.00000000E+00  0.00000000E+00  0.00000000E+00
  0.00000000E+00  0.00000000E+00  0.00000000E+00
  0.00000000E+00  0.00000000E+00  0.00000000E+00
  0.00000000E+00  0.00000000E+00  0.00000000E+00
  0.00000000E+00  0.00000000E+00  0.00000000E+00
  0.00000000E+00  0.00000000E+00  0.00000000E+00
  0.00000000E+00  0.00000000E+00  0.00000000E+00
  0.00000000E+00  0.00000000E+00  0.00000000E+00
  0.00000000E+00  0.00000000E+00  0.00000000E+00
  0.00000000E+00  0.00000000E+00  0.00000000E+00
  0.00000000E+00  0.00000000E+00  0.00000000E+00
  0.00000000E+00  0.00000000E+00  0.00000000E+00
  0.00000000E+00  0.00000000E+00  0.00000000E+00
  0.00000000E+00  0.00000000E+00  0.00000000E+00
  0.00000000E+00  0.00000000E+00  0.00000000E+00
  0.00000000E+00  0.00000000E+00  0.00000000E+00
  0.00000000E+00  0.00000000E+00  0.00000000E+00
  0.00000000E+00  0.00000000E+00  0.00000000E+00
  0.00000000E+00  0.00000000E+00  0.00000000E+00
  0.00000000E+00  0.00000000E+00  0.00000000E+00
  0.00000000E+00  0.00000000E+00  0.00000000E+00
  0.00000000E+00  0.00000000E+00  0.00000000E+00
  0.00000000E+00  0.00000000E+00  0.00000000E+00
  0.00000000E+00  0.00000000E+00  0.00000000E+00
  0.00000000E+00  0.00000000E+00  0.00000000E+00
  0.00000000E+00  0.00000000E+00  0.00000000E+00
  0.00000000E+00  0.00000000E+00  0.00000000E+00
  0.00000000E+00  0.00000000E+00  0.00000000E+00
  0.00000000E+00  0.00000000E+00  0.00000000E+00
  0.00000000E+00  0.00000000E+00  0.00000000E+00
  0.00000000E+00  0.00000000E+00  0.00000000E+00
  0.00000000E+00  0.00000000E+00  0.00000000E+00
  0.00000000E+00  0.00000000E+00  0.00000000E+00
  0.00000000E+00  0.00000000E+00  0.00000000E+00
  0.00000000E+00  0.00000000E+00  0.00000000E+00
  0.00000000E+00  0.00000000E+00  0.00000000E+00
  0.00000000E+00  0.00000000E+00  0.00000000E+00
  0.00000000E+00  0.00000000E+00  0.00000000E+00
  0.00000000E+00  0.00000000E+00  0.00000000E+00
