Cu Ge Se
 1.0000000000000000
    11.3870633164235322    0.0000000000000000    1.0799077969257329
     5.6391494895465444   11.9196569090682516    1.1133854447839220
     0.0000000000000000    0.0000000000000000   30.2876347857077874
Cu Ge Se
16 8 32
Selective dynamics
Cartesian
  6.9745071310942626  5.2148498977173601 17.3203718106344517   F   F   F
  3.6011824653738382  3.5510014663733154 19.1047041502823447   T   T   T
  4.6157978156723312  2.2349356704502972 11.9040940020766950   F   F   F
  1.5385992718907766  0.7449785568167631 14.0639095959281626   F   F   F
  1.2645672473599840  1.4894742259490474 17.9310517441612909   T   T   T
  7.3337517452740748  4.4698713409005943 13.5323251094298467   F   F   F
  8.2057909529847546  5.6219340841280943 19.3830812598493019   T   T   T
  2.5071723548046139  1.7121684127512393 19.9611613856028889   T   T   T
  5.5286835101104312  3.3612916124227463 17.7298103052058522   T   T   T
  2.8282129276513288  1.1564829284293461 16.0700172312974843   F   F   F
  5.8118198932350973  2.6011236818319836 13.9758914352178376   F   F   F
  2.9247107194078010  4.8033455261047813 15.0524984507551736   F   F   F
  3.1027599502539198  0.3787905454350738 12.2538778872969765   F   F   F
  3.2890783570026700  4.1363971556964074 11.2104321451316871   F   F   F
  9.7940818758675352 11.1746783522514868 17.8770645330264131   F   F   F
  6.4216200885305970  9.5121631385969749 19.6598830064322847   T   T   T
  7.4353725604456038  8.1947641249844239 12.4607867244686563   F   F   F
  4.3581740166640488  6.7048070113508889 14.6206023183201239   F   F   F
  4.0838701824384334  7.4490624791634890 18.4878676750001461   T   T   T
 10.1533264900473466 10.4296997954347201 14.0890178318218080   F   F   F
 11.0244430415619732 11.5828464674683307 19.9402257040452469   T   T   T
  5.3261997113731638  7.6740822733857428 20.5178733275496654   T   T   T
  8.3487860346409519  9.3212385459149019 18.2853101936878595   T   T   T
  5.6477876724246006  7.1163113829634721 16.6267099536894456   F   F   F
  8.6313946380083699  8.5609521363661099 14.5325841576097989   F   F   F
  5.7442854641810737 10.7631739806389071 15.6091911731471349   F   F   F
  5.9223346950271925  6.3386189999691993 12.8105706096889378   F   F   F
  6.1086531017759427 10.0962256102305332 11.7671248675236484   F   F   F
 12.6680387893060278  5.2148498977173601 17.8603257090973173   F   F   F
  9.2956408733991207  3.5523240030152801 19.6452997713265596   T   T   T
 10.3093294738840981  2.2349356704502972 12.4440479005395623   F   F   F
  7.2321309301025423  0.7449785568167631 14.6038634943910282   F   F   F
  6.9576579310847588  1.4890686998147746 18.4693273278074841   T   T   T
 13.0272834034858409  4.4698713409005943 14.0722790078927140   F   F   F
 13.8995559929066523  5.6212517939430260 19.9222307915645516   T   T   T
  8.2077292178772190  1.7071804540489806 20.4963822259838437   T   T   T
 11.2230402172867407  3.3625151279236429 18.2724016064926111   T   T   T
  8.5217445858630949  1.1564829284293461 16.6099711297603498   F   F   F
 11.5053515514468643  2.6011236818319836 14.5158453336807050   F   F   F
  8.6182423776195662  4.8033455261047813 15.5924523492180391   F   F   F
  8.7962916084656868  0.3787905454350738 12.7938317857598420   F   F   F
  8.9826100152144370  4.1363971556964074 11.7503860435945526   F   F   F
 15.4876135340793013 11.1746783522514868 18.4170184314892786   F   F   F
 12.1158907769985902  9.5134117855319573 20.2005104902336683   T   T   T
 13.1289042186573681  8.1947641249844239 13.0007406229315219   F   F   F
 10.0517056748758140  6.7048070113508889 15.1605562167829895   F   F   F
  9.7768871426099935  7.4486771677313062 19.0259861329446771   T   T   T
 15.8468581482591127 10.4296997954347201 14.6289717302846736   F   F   F
 16.7182185602598210 11.5820837758809336 20.4791768652453605   T   T   T
 11.0269289391313343  7.6688601791986954 21.0528684316948862   T   T   T
 14.0432747080633060  9.3224689005103656 18.8281524889205016   T   T   T
 11.3413193306363667  7.1163113829634721 17.1666638521523112   F   F   F
 14.3249262962201342  8.5609521363661099 15.0725380560726645   F   F   F
 11.4378171223928398 10.7631739806389071 16.1491450716100005   F   F   F
 11.6158663532389568  6.3386189999691993 13.3505245081518034   F   F   F
 11.8021847599877070 10.0962256102305332 12.3070787659865140   F   F   F
