Cd As Pd H O                            
   1.00000000000000     
     8.1355300400000008    0.0000000000000000    0.0000000000000005
    -0.0000000000000009   14.4600236199999994    0.0000000000000009
     0.0000000000000000    0.0000000000000000   28.4743551400000037
   Cd   As   Pd   H    O 
     8     8    40     1     1
Selective dynamics
Direct
  0.2500000000000000  0.0000000000000000  0.3894352696436414   F   F   F
  0.0000000000000000  0.2500000000000000  0.4608638410722179   F   F   F
  0.0000000000000000  0.0000000000000000  0.4608638410722179   F   F   F
  0.0000000000000000  0.1452314949999973  0.3894352696436414   F   F   F
  0.2500000000000000  0.1452314949999973  0.4608638410722179   F   F   F
  0.0000000000000000  0.3547685050000027  0.3894352696436414   F   F   F
  0.2500000000000000  0.3547685050000027  0.4608638410722179   F   F   F
  0.2500000000000000  0.0000000000000000  0.5322924125007873   F   F   F
  0.0004622221203334  0.2493782685283890  0.6037669828140082   T   T   T
  0.0018579440210758  0.0007653681563937  0.6017258048998499   T   T   T
  0.0000000000000000  0.1452314949999973  0.5322924125007873   F   F   F
  0.2504022545021201  0.1481430494196019  0.6024303899345540   T   T   T
  0.0000000000000000  0.3547685050000027  0.5322924125007873   F   F   F
  0.2485400231494737  0.3506115530968046  0.6021207395171189   T   T   T
  0.2500000000000000  0.5000000000000000  0.3894352696436414   F   F   F
  0.0000000000000000  0.7500000000000000  0.4608638410722179   F   F   F
  0.0000000000000000  0.5000000000000000  0.4608638410722179   F   F   F
  0.0000000000000000  0.6452314949999973  0.3894352696436414   F   F   F
  0.2500000000000000  0.6452314949999973  0.4608638410722179   F   F   F
  0.0000000000000000  0.8547685050000027  0.3894352696436414   F   F   F
  0.2500000000000000  0.8547685050000027  0.4608638410722179   F   F   F
  0.2500000000000000  0.5000000000000000  0.5322924125007873   F   F   F
  0.0032665853921827  0.7480176478466305  0.6032855890991655   T   T   T
  0.9969347111409803  0.4989488928523684  0.6016798253073077   T   T   T
  0.0000000000000000  0.6452314949999973  0.5322924125007873   F   F   F
  0.2445134378302427  0.6437821268712796  0.6089440236007633   T   T   T
  0.0000000000000000  0.8547685050000027  0.5322924125007873   F   F   F
  0.2500632626558854  0.8507179448250000  0.6020506235886813   T   T   T
  0.7500000000000000  0.0000000000000000  0.3894352696436414   F   F   F
  0.5000000000000000  0.2500000000000000  0.4608638410722179   F   F   F
  0.5000000000000000  0.0000000000000000  0.4608638410722179   F   F   F
  0.5000000000000000  0.1452314949999973  0.3894352696436414   F   F   F
  0.7500000000000000  0.1452314949999973  0.4608638410722179   F   F   F
  0.5000000000000000  0.3547685050000027  0.3894352696436414   F   F   F
  0.7500000000000000  0.3547685050000027  0.4608638410722179   F   F   F
  0.7500000000000000  0.0000000000000000  0.5322924125007873   F   F   F
  0.4999601147510901  0.2500217382979173  0.6034132490045820   T   T   T
  0.5005424542184400  0.9991529705001909  0.6017577325236374   T   T   T
  0.5000000000000000  0.1452314949999973  0.5322924125007873   F   F   F
  0.7501663952622124  0.1483477679708756  0.6024150119112335   T   T   T
  0.5000000000000000  0.3547685050000027  0.5322924125007873   F   F   F
  0.7503428756044528  0.3508958543333662  0.6015257909840273   T   T   T
  0.7500000000000000  0.5000000000000000  0.3894352696436414   F   F   F
  0.5000000000000000  0.7500000000000000  0.4608638410722179   F   F   F
  0.5000000000000000  0.5000000000000000  0.4608638410722179   F   F   F
  0.5000000000000000  0.6452314949999973  0.3894352696436414   F   F   F
  0.7500000000000000  0.6452314949999973  0.4608638410722179   F   F   F
  0.5000000000000000  0.8547685050000027  0.3894352696436414   F   F   F
  0.7500000000000000  0.8547685050000027  0.4608638410722179   F   F   F
  0.7500000000000000  0.5000000000000000  0.5322924125007873   F   F   F
  0.5024022310083680  0.7524026829116792  0.6024704660800069   T   T   T
  0.5048930422947677  0.4939133149094488  0.6031320055299147   T   T   T
  0.5000000000000000  0.6452314949999973  0.5322924125007873   F   F   F
  0.7510425323843037  0.6488491473869686  0.6022188221386742   T   T   T
  0.5000000000000000  0.8547685050000027  0.5322924125007873   F   F   F
  0.7538048759341791  0.8516977893752582  0.6022849839442515   T   T   T
  0.3312025950922148  0.5241739034022856  0.6761529517618001   T   T   T
  0.4023791033097837  0.5691001883062299  0.6604763308270591   T   T   T
 
  0.00000000E+00  0.00000000E+00  0.00000000E+00
  0.00000000E+00  0.00000000E+00  0.00000000E+00
  0.00000000E+00  0.00000000E+00  0.00000000E+00
  0.00000000E+00  0.00000000E+00  0.00000000E+00
  0.00000000E+00  0.00000000E+00  0.00000000E+00
  0.00000000E+00  0.00000000E+00  0.00000000E+00
  0.00000000E+00  0.00000000E+00  0.00000000E+00
  0.00000000E+00  0.00000000E+00  0.00000000E+00
  0.00000000E+00  0.00000000E+00  0.00000000E+00
  0.00000000E+00  0.00000000E+00  0.00000000E+00
  0.00000000E+00  0.00000000E+00  0.00000000E+00
  0.00000000E+00  0.00000000E+00  0.00000000E+00
  0.00000000E+00  0.00000000E+00  0.00000000E+00
  0.00000000E+00  0.00000000E+00  0.00000000E+00
  0.00000000E+00  0.00000000E+00  0.00000000E+00
  0.00000000E+00  0.00000000E+00  0.00000000E+00
  0.00000000E+00  0.00000000E+00  0.00000000E+00
  0.00000000E+00  0.00000000E+00  0.00000000E+00
  0.00000000E+00  0.00000000E+00  0.00000000E+00
  0.00000000E+00  0.00000000E+00  0.00000000E+00
  0.00000000E+00  0.00000000E+00  0.00000000E+00
  0.00000000E+00  0.00000000E+00  0.00000000E+00
  0.00000000E+00  0.00000000E+00  0.00000000E+00
  0.00000000E+00  0.00000000E+00  0.00000000E+00
  0.00000000E+00  0.00000000E+00  0.00000000E+00
  0.00000000E+00  0.00000000E+00  0.00000000E+00
  0.00000000E+00  0.00000000E+00  0.00000000E+00
  0.00000000E+00  0.00000000E+00  0.00000000E+00
  0.00000000E+00  0.00000000E+00  0.00000000E+00
  0.00000000E+00  0.00000000E+00  0.00000000E+00
  0.00000000E+00  0.00000000E+00  0.00000000E+00
  0.00000000E+00  0.00000000E+00  0.00000000E+00
  0.00000000E+00  0.00000000E+00  0.00000000E+00
  0.00000000E+00  0.00000000E+00  0.00000000E+00
  0.00000000E+00  0.00000000E+00  0.00000000E+00
  0.00000000E+00  0.00000000E+00  0.00000000E+00
  0.00000000E+00  0.00000000E+00  0.00000000E+00
  0.00000000E+00  0.00000000E+00  0.00000000E+00
  0.00000000E+00  0.00000000E+00  0.00000000E+00
  0.00000000E+00  0.00000000E+00  0.00000000E+00
  0.00000000E+00  0.00000000E+00  0.00000000E+00
  0.00000000E+00  0.00000000E+00  0.00000000E+00
  0.00000000E+00  0.00000000E+00  0.00000000E+00
  0.00000000E+00  0.00000000E+00  0.00000000E+00
  0.00000000E+00  0.00000000E+00  0.00000000E+00
  0.00000000E+00  0.00000000E+00  0.00000000E+00
  0.00000000E+00  0.00000000E+00  0.00000000E+00
  0.00000000E+00  0.00000000E+00  0.00000000E+00
  0.00000000E+00  0.00000000E+00  0.00000000E+00
  0.00000000E+00  0.00000000E+00  0.00000000E+00
  0.00000000E+00  0.00000000E+00  0.00000000E+00
  0.00000000E+00  0.00000000E+00  0.00000000E+00
  0.00000000E+00  0.00000000E+00  0.00000000E+00
  0.00000000E+00  0.00000000E+00  0.00000000E+00
  0.00000000E+00  0.00000000E+00  0.00000000E+00
  0.00000000E+00  0.00000000E+00  0.00000000E+00
  0.00000000E+00  0.00000000E+00  0.00000000E+00
  0.00000000E+00  0.00000000E+00  0.00000000E+00
