Rb Se H O                               
   1.00000000000000     
    13.0227245800000002    0.0000000000000000    0.0000000000000008
    -0.0000000000000010   16.6933679746582690    0.0000000000000010
     0.0000000000000000    0.0000000000000000   38.5516819754017206
   Rb   Se   H    O 
    24    24     1     1
Selective dynamics
Direct
  0.2500000000000000  0.6562587975000014  0.3984353006250032   F   F   F
  0.2490884009213019  0.1529627183575499  0.5230076787535580   T   T   T
  0.2500000000000000  0.5000000000000000  0.5156293987500007   F   F   F
  0.2500000000000000  0.0000000000000000  0.3906293987500007   F   F   F
  0.2500000000000000  0.3437412024999986  0.3984353006250032   F   F   F
  0.2507547302319608  0.8372164299802236  0.5230730476121153   T   T   T
  0.0022936430384206  0.8207677855112721  0.6013641900871889   T   T   T
  0.0000000000000000  0.3237143375000002  0.4815714156249982   F   F   F
  0.0013141263917262  0.4971491809988393  0.5950390329601447   T   T   T
  0.0000000000000000  0.0000000000000000  0.4743571687499966   F   F   F
  0.0745926288810566  0.1668618968068074  0.6179422608507963   T   T   T
  0.0000000000000000  0.6762856624999998  0.4815714156249982   F   F   F
  0.1567333800760480  0.3322616602003094  0.5608345517196085   T   T   T
  0.1540258799999989  0.8333333333333357  0.4375000000000000   F   F   F
  0.3434524218488946  0.3326127379730366  0.5612534205750563   T   T   T
  0.3459741200000011  0.8333333333333357  0.4375000000000000   F   F   F
  0.3435656369732527  0.6624203763701502  0.5656531722390099   T   T   T
  0.3459741200000011  0.1666666666666643  0.4375000000000000   F   F   F
  0.1559279941696516  0.6626597963036573  0.5656908949440052   T   T   T
  0.1540258799999989  0.1666666666666643  0.4375000000000000   F   F   F
  0.4045594850000001  0.5000000000000000  0.4375000000000000   F   F   F
  0.4008207760115496  0.9918314400582418  0.5617441776799907   T   T   T
  0.0954405149999999  0.5000000000000000  0.4375000000000000   F   F   F
  0.0984273173668910  0.9914312591634982  0.5607083822884746   T   T   T
  0.7500000000000000  0.6562587975000014  0.3984353006250032   F   F   F
  0.7501156750383657  0.1558513880718877  0.5304087728607172   T   T   T
  0.7500000000000000  0.5000000000000000  0.5156293987500007   F   F   F
  0.7500000000000000  0.0000000000000000  0.3906293987500007   F   F   F
  0.7500000000000000  0.3437412024999986  0.3984353006250032   F   F   F
  0.7496391849785127  0.8454854025750578  0.5242637879202547   T   T   T
  0.4959601575401464  0.8199308159800367  0.6014506594441187   T   T   T
  0.5000000000000000  0.3237143375000002  0.4815714156249982   F   F   F
  0.4977067593198754  0.4972146029320044  0.5949209015413004   T   T   T
  0.5000000000000000  0.0000000000000000  0.4743571687499966   F   F   F
  0.4192469938628136  0.1656456917144169  0.6186037354417948   T   T   T
  0.5000000000000000  0.6762856624999998  0.4815714156249982   F   F   F
  0.6578456389425611  0.3363588229627368  0.5648693846240107   T   T   T
  0.6540258799999989  0.8333333333333357  0.4375000000000000   F   F   F
  0.8428188309002635  0.3368810220268301  0.5648072117804972   T   T   T
  0.8459741200000011  0.8333333333333357  0.4375000000000000   F   F   F
  0.8436064397409950  0.6660816497781070  0.5643093753177624   T   T   T
  0.8459741200000011  0.1666666666666643  0.4375000000000000   F   F   F
  0.6558254904049718  0.6659160563081841  0.5643833940708447   T   T   T
  0.6540258799999989  0.1666666666666643  0.4375000000000000   F   F   F
  0.9045594850000001  0.5000000000000000  0.4375000000000000   F   F   F
  0.9134734082967100  0.9970435504642197  0.5652495256910726   T   T   T
  0.5954405149999999  0.5000000000000000  0.4375000000000000   F   F   F
  0.5857066262824802  0.9966835557212335  0.5649283940056833   T   T   T
  0.2433739836685191  0.1219192677800720  0.6772641048492858   T   T   T
  0.2463398157383594  0.1523291483138678  0.6557713597420971   T   T   T
 
  0.00000000E+00  0.00000000E+00  0.00000000E+00
  0.00000000E+00  0.00000000E+00  0.00000000E+00
  0.00000000E+00  0.00000000E+00  0.00000000E+00
  0.00000000E+00  0.00000000E+00  0.00000000E+00
  0.00000000E+00  0.00000000E+00  0.00000000E+00
  0.00000000E+00  0.00000000E+00  0.00000000E+00
  0.00000000E+00  0.00000000E+00  0.00000000E+00
  0.00000000E+00  0.00000000E+00  0.00000000E+00
  0.00000000E+00  0.00000000E+00  0.00000000E+00
  0.00000000E+00  0.00000000E+00  0.00000000E+00
  0.00000000E+00  0.00000000E+00  0.00000000E+00
  0.00000000E+00  0.00000000E+00  0.00000000E+00
  0.00000000E+00  0.00000000E+00  0.00000000E+00
  0.00000000E+00  0.00000000E+00  0.00000000E+00
  0.00000000E+00  0.00000000E+00  0.00000000E+00
  0.00000000E+00  0.00000000E+00  0.00000000E+00
  0.00000000E+00  0.00000000E+00  0.00000000E+00
  0.00000000E+00  0.00000000E+00  0.00000000E+00
  0.00000000E+00  0.00000000E+00  0.00000000E+00
  0.00000000E+00  0.00000000E+00  0.00000000E+00
  0.00000000E+00  0.00000000E+00  0.00000000E+00
  0.00000000E+00  0.00000000E+00  0.00000000E+00
  0.00000000E+00  0.00000000E+00  0.00000000E+00
  0.00000000E+00  0.00000000E+00  0.00000000E+00
  0.00000000E+00  0.00000000E+00  0.00000000E+00
  0.00000000E+00  0.00000000E+00  0.00000000E+00
  0.00000000E+00  0.00000000E+00  0.00000000E+00
  0.00000000E+00  0.00000000E+00  0.00000000E+00
  0.00000000E+00  0.00000000E+00  0.00000000E+00
  0.00000000E+00  0.00000000E+00  0.00000000E+00
  0.00000000E+00  0.00000000E+00  0.00000000E+00
  0.00000000E+00  0.00000000E+00  0.00000000E+00
  0.00000000E+00  0.00000000E+00  0.00000000E+00
  0.00000000E+00  0.00000000E+00  0.00000000E+00
  0.00000000E+00  0.00000000E+00  0.00000000E+00
  0.00000000E+00  0.00000000E+00  0.00000000E+00
  0.00000000E+00  0.00000000E+00  0.00000000E+00
  0.00000000E+00  0.00000000E+00  0.00000000E+00
  0.00000000E+00  0.00000000E+00  0.00000000E+00
  0.00000000E+00  0.00000000E+00  0.00000000E+00
  0.00000000E+00  0.00000000E+00  0.00000000E+00
  0.00000000E+00  0.00000000E+00  0.00000000E+00
  0.00000000E+00  0.00000000E+00  0.00000000E+00
  0.00000000E+00  0.00000000E+00  0.00000000E+00
  0.00000000E+00  0.00000000E+00  0.00000000E+00
  0.00000000E+00  0.00000000E+00  0.00000000E+00
  0.00000000E+00  0.00000000E+00  0.00000000E+00
  0.00000000E+00  0.00000000E+00  0.00000000E+00
  0.00000000E+00  0.00000000E+00  0.00000000E+00
  0.00000000E+00  0.00000000E+00  0.00000000E+00
