Rb Se H O
 1.0000000000000000
    13.0227245800000002    0.0000000000000000    0.0000000000000008
    -0.0000000000000010   16.6933679746582690    0.0000000000000010
     0.0000000000000000    0.0000000000000000   38.5516819754017206
Rb Se H O
24 24 1 1
Selective dynamics
Cartesian
  3.2556811449999992 10.9551695932742454 15.3603509974685792   F   F   F
  3.2438096412707469  2.5534629439466467 20.1628257020001591   T   T   T
  3.2556811449999996  8.3466839873291345 19.8783805977776034   F   F   F
  3.2556811450000001  0.0000000000000000 15.0594203508523847   F   F   F
  3.2556811449999996  5.7381983813840236 15.3603509974685792   F   F   F
  3.2655097889430231 13.9759619400895527 20.1653457814463444   T   T   T
  0.0298694815742229 13.7013786652850857 23.1836010076362307   T   T   T
 -0.0000000000000003  5.4038825545602185 18.5653880636190038   F   F   F
  0.0171135060627416  8.2990942167135753 22.9397555616301574   T   T   T
  0.0000000000000000  0.0000000000000000 18.2872667124019657   F   F   F
  0.9713992616161702  2.7854870443455146 23.8227135194805903   T   T   T
 -0.0000000000000007 11.2894854200980514 18.5653880636190038   F   F   F
  2.0410956412228738  5.5465661575945777 21.6211152787114784   T   T   T
  2.0058366134321295 13.9111399788818915 16.8663608642382528   F   F   F
  4.4726862960721547  5.5524268280424502 21.6372633776160015   T   T   T
  4.5055256765678697 13.9111399788818897 16.8663608642382528   F   F   F
  4.4741606654549306 11.0580270966585665 21.8068812045354221   T   T   T
  4.5055256765678706  2.7822279957763785 16.8663608642382528   F   F   F
  2.0306073223832390 11.0620238217090208 21.8083354782616894   T   T   T
  2.0058366134321304  2.7822279957763780 16.8663608642382528   F   F   F
  5.2684667493816404  8.3466839873291345 16.8663608642382528   F   F   F
  5.2197785719402781 -0.1363607769308146 21.6561828894524311   T   T   T
  1.2428955406183586  8.3466839873291345 16.8663608642382528   F   F   F
  1.2817918452172521 -0.1430411438632291 21.6162512349272689   T   T   T
  9.7670434349999997 10.9551695932742454 15.3603509974685792   F   F   F
  9.7685498391654111  2.6016845704452631 20.4481503282895254   T   T   T
  9.7670434349999997  8.3466839873291345 19.8783805977776034   F   F   F
  9.7670434349999997  0.0000000000000000 15.0594203508523847   F   F   F
  9.7670434349999997  5.7381983813840236 15.3603509974685792   F   F   F
  9.7623446403508165 14.1139989423875587 20.2112508231211585   T   T   T
  6.4587525342987302 13.6874068249166161 23.1869345467852561   T   T   T
  6.5113622900000001  5.4038825545602185 18.5653880636190038   F   F   F
  6.4814980482271149  8.3001863291175422 22.9352013967395791   T   T   T
  6.5113622900000001  0.0000000000000000 18.2872667124019657   F   F   F
  5.4597381320683445  2.7651844852055509 23.8482144775475042   T   T   T
  6.5113622899999992 11.2894854200980514 18.5653880636190038   F   F   F
  8.5669425721031285  5.6149616032399425 21.7766648736656876   T   T   T
  8.5171989034321296 13.9111399788818915 16.8663608642382528   F   F   F
 10.9757975056517054  5.6236788643728568 21.7742680059751379   T   T   T
 11.0168879665678698 13.9111399788818897 16.8663608642382528   F   F   F
 10.9860543186613224 11.1191460809133567 21.7550755729880976   T   T   T
 11.0168879665678716  2.7822279957763785 16.8663608642382528   F   F   F
  8.5406347340873463 11.1163817681858053 21.7579291204170673   T   T   T
  8.5171989034321314  2.7822279957763780 16.8663608642382528   F   F   F
 11.7798290393816405  8.3466839873291345 16.8663608642382528   F   F   F
 11.8959126074019004 -0.0493530999992799 21.7913199511889175   T   T   T
  7.7542578306183589  8.3466839873291345 16.8663608642382528   F   F   F
  7.6274960787577459 -0.0553626247128705 21.7789397845814179   T   T   T
  3.1693923592525435  2.0352432002536935 26.1096703835049340   T   T   T
  3.2080155734485660  2.5428865260697457 25.2810889093540254   T   T   T
