Cu Au                                   
   1.00000000000000     
    11.5570010604156135    0.0000000000000000    0.0000000000000007
     5.7785005302078094   10.0086565098836147    0.0000000000000007
     0.0000000000000000    0.0000000000000000   28.3087555548223619
   Cu   Au
    12    36
Selective dynamics
Direct
  0.0000080853880249  0.9999851782622713  0.5782919550704833   T   T   T
  0.1666666666666643  0.1666666666666643  0.4166666666666643   F   F   F
  0.3333333333333357  0.3333333333333357  0.5000000000000000   F   F   F
  0.4166666666666643  0.1666666666666643  0.4166666666666643   F   F   F
  0.0833333333333357  0.3333333333333357  0.5000000000000000   F   F   F
  0.2510831472441239  0.9978589958582731  0.5853518789563807   T   T   T
  0.1666666666666643  0.4166666666666643  0.4166666666666643   F   F   F
  0.3333333333333357  0.0833333333333357  0.5000000000000000   F   F   F
  0.9978467050150570  0.2510931492163522  0.5853528797609258   T   T   T
  0.4166666666666643  0.4166666666666643  0.4166666666666643   F   F   F
  0.0833333333333357  0.0833333333333357  0.5000000000000000   F   F   F
  0.2510180871049670  0.2510480102519423  0.5853501563327725   T   T   T
  0.9999893785008993  0.5000254385101002  0.5782996609438911   T   T   T
  0.1666666666666643  0.6666666666666643  0.4166666666666643   F   F   F
  0.3333333333333357  0.8333333333333357  0.5000000000000000   F   F   F
  0.4166666666666643  0.6666666666666643  0.4166666666666643   F   F   F
  0.0833333333333357  0.8333333333333357  0.5000000000000000   F   F   F
  0.2510578875228617  0.4978818931616402  0.5853719884797144   T   T   T
  0.1666666666666643  0.9166666666666643  0.4166666666666643   F   F   F
  0.3333333333333357  0.5833333333333357  0.5000000000000000   F   F   F
  0.9979032220371309  0.7510502499425584  0.5853718624487243   T   T   T
  0.4166666666666643  0.9166666666666643  0.4166666666666643   F   F   F
  0.0833333333333357  0.5833333333333357  0.5000000000000000   F   F   F
  0.2510823346178057  0.7510203445952541  0.5853473567563583   T   T   T
  0.5000327664423878  0.9999900417806487  0.5783024228265603   T   T   T
  0.6666666666666643  0.1666666666666643  0.4166666666666643   F   F   F
  0.8333333333333357  0.3333333333333357  0.5000000000000000   F   F   F
  0.9166666666666643  0.1666666666666643  0.4166666666666643   F   F   F
  0.5833333333333357  0.3333333333333357  0.5000000000000000   F   F   F
  0.7510194730307802  0.9979073497126407  0.5853688879414563   T   T   T
  0.6666666666666643  0.4166666666666643  0.4166666666666643   F   F   F
  0.8333333333333357  0.0833333333333357  0.5000000000000000   F   F   F
  0.4978734451070750  0.2510533344089154  0.5853721804767957   T   T   T
  0.9166666666666643  0.4166666666666643  0.4166666666666643   F   F   F
  0.5833333333333357  0.0833333333333357  0.5000000000000000   F   F   F
  0.7510381487360078  0.2510458368199551  0.5853570632107719   T   T   T
  0.4999886603516615  0.5000068245569125  0.5783015076985762   T   T   T
  0.6666666666666643  0.6666666666666643  0.4166666666666643   F   F   F
  0.8333333333333357  0.8333333333333357  0.5000000000000000   F   F   F
  0.9166666666666643  0.6666666666666643  0.4166666666666643   F   F   F
  0.5833333333333357  0.8333333333333357  0.5000000000000000   F   F   F
  0.7510330351750838  0.4979292090940035  0.5853925319950832   T   T   T
  0.6666666666666643  0.9166666666666643  0.4166666666666643   F   F   F
  0.8333333333333357  0.5833333333333357  0.5000000000000000   F   F   F
  0.4979463633591976  0.7510336397417561  0.5853857645872083   T   T   T
  0.9166666666666643  0.9166666666666643  0.4166666666666643   F   F   F
  0.5833333333333357  0.5833333333333357  0.5000000000000000   F   F   F
  0.7510845754768951  0.7510026577222320  0.5853692670378194   T   T   T
 
  0.00000000E+00  0.00000000E+00  0.00000000E+00
  0.00000000E+00  0.00000000E+00  0.00000000E+00
  0.00000000E+00  0.00000000E+00  0.00000000E+00
  0.00000000E+00  0.00000000E+00  0.00000000E+00
  0.00000000E+00  0.00000000E+00  0.00000000E+00
  0.00000000E+00  0.00000000E+00  0.00000000E+00
  0.00000000E+00  0.00000000E+00  0.00000000E+00
  0.00000000E+00  0.00000000E+00  0.00000000E+00
  0.00000000E+00  0.00000000E+00  0.00000000E+00
  0.00000000E+00  0.00000000E+00  0.00000000E+00
  0.00000000E+00  0.00000000E+00  0.00000000E+00
  0.00000000E+00  0.00000000E+00  0.00000000E+00
  0.00000000E+00  0.00000000E+00  0.00000000E+00
  0.00000000E+00  0.00000000E+00  0.00000000E+00
  0.00000000E+00  0.00000000E+00  0.00000000E+00
  0.00000000E+00  0.00000000E+00  0.00000000E+00
  0.00000000E+00  0.00000000E+00  0.00000000E+00
  0.00000000E+00  0.00000000E+00  0.00000000E+00
  0.00000000E+00  0.00000000E+00  0.00000000E+00
  0.00000000E+00  0.00000000E+00  0.00000000E+00
  0.00000000E+00  0.00000000E+00  0.00000000E+00
  0.00000000E+00  0.00000000E+00  0.00000000E+00
  0.00000000E+00  0.00000000E+00  0.00000000E+00
  0.00000000E+00  0.00000000E+00  0.00000000E+00
  0.00000000E+00  0.00000000E+00  0.00000000E+00
  0.00000000E+00  0.00000000E+00  0.00000000E+00
  0.00000000E+00  0.00000000E+00  0.00000000E+00
  0.00000000E+00  0.00000000E+00  0.00000000E+00
  0.00000000E+00  0.00000000E+00  0.00000000E+00
  0.00000000E+00  0.00000000E+00  0.00000000E+00
  0.00000000E+00  0.00000000E+00  0.00000000E+00
  0.00000000E+00  0.00000000E+00  0.00000000E+00
  0.00000000E+00  0.00000000E+00  0.00000000E+00
  0.00000000E+00  0.00000000E+00  0.00000000E+00
  0.00000000E+00  0.00000000E+00  0.00000000E+00
  0.00000000E+00  0.00000000E+00  0.00000000E+00
  0.00000000E+00  0.00000000E+00  0.00000000E+00
  0.00000000E+00  0.00000000E+00  0.00000000E+00
  0.00000000E+00  0.00000000E+00  0.00000000E+00
  0.00000000E+00  0.00000000E+00  0.00000000E+00
  0.00000000E+00  0.00000000E+00  0.00000000E+00
  0.00000000E+00  0.00000000E+00  0.00000000E+00
  0.00000000E+00  0.00000000E+00  0.00000000E+00
  0.00000000E+00  0.00000000E+00  0.00000000E+00
  0.00000000E+00  0.00000000E+00  0.00000000E+00
  0.00000000E+00  0.00000000E+00  0.00000000E+00
  0.00000000E+00  0.00000000E+00  0.00000000E+00
  0.00000000E+00  0.00000000E+00  0.00000000E+00
