Te O                                    
   1.00000000000000     
     9.6829936960780039    0.0000000000000000    0.0000000000000006
    -0.0000000000000006    9.6829936960780039    0.0000000000000006
     0.0000000000000000    0.0000000000000000   32.2766456535933486
   Te   O 
    27     1
Selective dynamics
Direct
  0.0000000000000000  0.0000000000000000  0.3999999999999986   F   F   F
  0.0000000000000000  0.0000000000000000  0.5000000000000000   F   F   F
  0.9971487612652936  0.0114350118288371  0.5924609912776901   T   T   T
  0.0000000000000000  0.3333333333333357  0.3999999999999986   F   F   F
  0.0000000000000000  0.3333333333333357  0.5000000000000000   F   F   F
  0.9997847636843744  0.3312578883222628  0.5943614281860974   T   T   T
  0.0000000000000000  0.6666666666666643  0.3999999999999986   F   F   F
  0.0000000000000000  0.6666666666666643  0.5000000000000000   F   F   F
  0.9980271568888028  0.6850541704262341  0.5898659300183908   T   T   T
  0.3333333333333357  0.0000000000000000  0.3999999999999986   F   F   F
  0.3333333333333357  0.0000000000000000  0.5000000000000000   F   F   F
  0.3469266586384734  0.9952169071952000  0.5925358766453215   T   T   T
  0.3333333333333357  0.3333333333333357  0.3999999999999986   F   F   F
  0.3333333333333357  0.3333333333333357  0.5000000000000000   F   F   F
  0.3175076074984418  0.3483950529580184  0.5942650755937962   T   T   T
  0.3333333333333357  0.6666666666666643  0.3999999999999986   F   F   F
  0.3333333333333357  0.6666666666666643  0.5000000000000000   F   F   F
  0.3139675838010518  0.6588642170534840  0.6016184937470257   T   T   T
  0.6666666666666643  0.0000000000000000  0.3999999999999986   F   F   F
  0.6666666666666643  0.0000000000000000  0.5000000000000000   F   F   F
  0.6528573274169958  0.9973974140007797  0.5932295710140991   T   T   T
  0.6666666666666643  0.3333333333333357  0.3999999999999986   F   F   F
  0.6666666666666643  0.3333333333333357  0.5000000000000000   F   F   F
  0.6814868704752470  0.3511576416381388  0.5949501343922208   T   T   T
  0.6666666666666643  0.6666666666666643  0.3999999999999986   F   F   F
  0.6666666666666643  0.6666666666666643  0.5000000000000000   F   F   F
  0.6886533583225543  0.6581550508460410  0.6046305981204014   T   T   T
  0.4976698297001931  0.6636121511365616  0.6304264692735941   T   T   T
 
  0.00000000E+00  0.00000000E+00  0.00000000E+00
  0.00000000E+00  0.00000000E+00  0.00000000E+00
  0.00000000E+00  0.00000000E+00  0.00000000E+00
  0.00000000E+00  0.00000000E+00  0.00000000E+00
  0.00000000E+00  0.00000000E+00  0.00000000E+00
  0.00000000E+00  0.00000000E+00  0.00000000E+00
  0.00000000E+00  0.00000000E+00  0.00000000E+00
  0.00000000E+00  0.00000000E+00  0.00000000E+00
  0.00000000E+00  0.00000000E+00  0.00000000E+00
  0.00000000E+00  0.00000000E+00  0.00000000E+00
  0.00000000E+00  0.00000000E+00  0.00000000E+00
  0.00000000E+00  0.00000000E+00  0.00000000E+00
  0.00000000E+00  0.00000000E+00  0.00000000E+00
  0.00000000E+00  0.00000000E+00  0.00000000E+00
  0.00000000E+00  0.00000000E+00  0.00000000E+00
  0.00000000E+00  0.00000000E+00  0.00000000E+00
  0.00000000E+00  0.00000000E+00  0.00000000E+00
  0.00000000E+00  0.00000000E+00  0.00000000E+00
  0.00000000E+00  0.00000000E+00  0.00000000E+00
  0.00000000E+00  0.00000000E+00  0.00000000E+00
  0.00000000E+00  0.00000000E+00  0.00000000E+00
  0.00000000E+00  0.00000000E+00  0.00000000E+00
  0.00000000E+00  0.00000000E+00  0.00000000E+00
  0.00000000E+00  0.00000000E+00  0.00000000E+00
  0.00000000E+00  0.00000000E+00  0.00000000E+00
  0.00000000E+00  0.00000000E+00  0.00000000E+00
  0.00000000E+00  0.00000000E+00  0.00000000E+00
  0.00000000E+00  0.00000000E+00  0.00000000E+00
