Te O
 1.0000000000000000
     9.6829936960780039    0.0000000000000000    0.0000000000000006
    -0.0000000000000006    9.6829936960780039    0.0000000000000006
     0.0000000000000000    0.0000000000000000   32.2766456535933486
Te O
27 1
Selective dynamics
Cartesian
  0.0000000000000000  0.0000000000000000 12.9106582614373391   F   F   F
  0.0000000000000000  0.0000000000000000 16.1383228267966743   F   F   F
 -0.0276085266941664  0.1107251474531949 19.1226534790466260   T   T   T
 -0.0000000000000002  3.2276645653593348 12.9106582614373391   F   F   F
 -0.0000000000000002  3.2276645653593348 16.1383228267966743   F   F   F
 -0.0020841318873865  3.2075680444005754 19.1839932077263668   T   T   T
 -0.0000000000000004  6.4553291307186695 12.9106582614373391   F   F   F
 -0.0000000000000004  6.4553291307186695 16.1383228267966743   F   F   F
 -0.0191030274090739  6.6333752137091464 19.0388936063308805   T   T   T
  3.2276645653593348  0.0000000000000000 12.9106582614373391   F   F   F
  3.2276645653593348  0.0000000000000000 16.1383228267966743   F   F   F
  3.3592886485977558 -0.0463146574766142 19.1250705275223893   T   T   T
  3.2276645653593348  3.2276645653593348 12.9106582614373391   F   F   F
  3.2276645653593348  3.2276645653593348 16.1383228267966743   F   F   F
  3.0744241618641879  3.3735071015372866 19.1808832692467561   T   T   T
  3.2276645653593343  6.4553291307186695 12.9106582614373391   F   F   F
  3.2276645653593343  6.4553291307186695 16.1383228267966743   F   F   F
  3.0401461347184133  6.3797780603002279 19.4182269413212865   T   T   T
  6.4553291307186695  0.0000000000000000 12.9106582614373391   F   F   F
  6.4553291307186695  0.0000000000000000 16.1383228267966743   F   F   F
  6.3216133858171046 -0.0252008238239796 19.1474606548553723   T   T   T
  6.4553291307186695  3.2276645653593348 12.9106582614373391   F   F   F
  6.4553291307186695  3.2276645653593348 16.1383228267966743   F   F   F
  6.5988330707717209  3.4002572303117247 19.2029946693355171   T   T   T
  6.4553291307186695  6.4553291307186695 12.9106582614373391   F   F   F
  6.4553291307186695  6.4553291307186695 16.1383228267966743   F   F   F
  6.6682261274202714  6.3729112083840986 19.5154475668522949   T   T   T
  4.8189338237151578  6.4257522760961070 20.3480517593897581   T   T   T
