Ni Te H O
 1.0000000000000000
    11.8219139783511284    0.0000000000000000    0.0000000000000007
    -5.9109569891755687   10.2380778266064336    0.0000000000000007
     0.0000000000000000    0.0000000000000000   31.7872179599999996
Ni Te H O
18 36 1 1
Selective dynamics
Cartesian
  0.0000000000000000  0.0000000000000000 13.2446741499999998   F   F   F
  1.9703189963918541  1.1375642029562705 14.5558246279078389   F   F   F
 -0.0000000000000009  2.2751284059125405 11.9335236720921625   F   F   F
 -0.0039612567461518  0.0035561404993132 18.5197769611485406   T   T   T
  1.9615636388784035  1.1226947207361782 19.8472791603677443   T   T   T
 -0.0000000000000009  2.2751284059125405 17.2313933320921642   F   F   F
 -1.9703189963918561  3.4126926088688112 13.2446741499999998   F   F   F
 -0.0000000000000020  4.5502568118250819 14.5558246279078389   F   F   F
 -1.9703189963918570  5.6878210147813517 11.9335236720921625   F   F   F
 -1.9669811289066130  3.4120188374499509 18.5131164573766860   T   T   T
 -0.0149098858944419  4.5519916212289244 19.8584366896453695   T   T   T
 -1.9703189963918570  5.6878210147813517 17.2313933320921642   F   F   F
 -3.9406379927837123  6.8253852177376224 13.2446741499999998   F   F   F
 -1.9703189963918581  7.9629494206938931 14.5558246279078389   F   F   F
 -3.9406379927837132  9.1005136236501620 11.9335236720921625   F   F   F
 -3.9382051480921008  6.8291112338646975 18.5345669227107415   T   T   T
 -1.9781120642663033  7.9665432821603632 19.8537446151645973   T   T   T
 -3.9406379927837132  9.1005136236501620 17.2313933320921642   F   F   F
  3.9406379927837096  0.0000000000000000 13.2446741499999998   F   F   F
  5.9109569891755633  1.1375642029562705 14.5558246279078389   F   F   F
  3.9406379927837087  2.2751284059125405 11.9335236720921625   F   F   F
  3.9386129194713848 -0.0053071062648087 18.5304988989381805   T   T   T
  5.9206045834665453  1.1248073728931167 19.8416536578630449   T   T   T
  3.9406379927837087  2.2751284059125405 17.2313933320921642   F   F   F
  1.9703189963918535  3.4126926088688112 13.2446741499999998   F   F   F
  3.9406379927837074  4.5502568118250819 14.5558246279078389   F   F   F
  1.9703189963918526  5.6878210147813517 11.9335236720921625   F   F   F
  1.9357940800935298  3.3957368112919273 18.5504701032049475   T   T   T
  3.9397683550792530  4.5682657031289891 19.7880691727046916   T   T   T
  1.9703189963918526  5.6878210147813517 17.2313933320921642   F   F   F
 -0.0000000000000027  6.8253852177376224 13.2446741499999998   F   F   F
  1.9703189963918515  7.9629494206938931 14.5558246279078389   F   F   F
 -0.0000000000000036  9.1005136236501620 11.9335236720921625   F   F   F
 -0.0075620113093491  6.8281067695456308 18.5406862605313059   T   T   T
  1.9598159863506037  7.9719495489963244 19.8628691932541379   T   T   T
 -0.0000000000000036  9.1005136236501620 17.2313933320921642   F   F   F
  7.8812759855674193  0.0000000000000000 13.2446741499999998   F   F   F
  9.8515949819592734  1.1375642029562705 14.5558246279078389   F   F   F
  7.8812759855674184  2.2751284059125405 11.9335236720921625   F   F   F
  7.8803536309884583  0.0032889473632167 18.5176263717811658   T   T   T
  9.8461611708552610  1.1399856544886979 19.8424721462239368   T   T   T
  7.8812759855674184  2.2751284059125405 17.2313933320921642   F   F   F
  5.9109569891755633  3.4126926088688112 13.2446741499999998   F   F   F
  7.8812759855674175  4.5502568118250819 14.5558246279078389   F   F   F
  5.9109569891755624  5.6878210147813517 11.9335236720921625   F   F   F
  5.9430781411959721  3.3995461083581819 18.5565164679109280   T   T   T
  7.9096327650951297  4.5455970698673154 19.8427581881529953   T   T   T
  5.9109569891755624  5.6878210147813517 17.2313933320921642   F   F   F
  3.9406379927837070  6.8253852177376224 13.2446741500000016   F   F   F
  5.9109569891755616  7.9629494206938931 14.5558246279078407   F   F   F
  3.9406379927837061  9.1005136236501620 11.9335236720921642   F   F   F
  3.9416558633761842  6.8586646926859807 18.5447649925726132   T   T   T
  5.9158924140004689  7.9894144899982154 19.8445722075917921   T   T   T
  3.9406379927837061  9.1005136236501620 17.2313933320921642   F   F   F
  3.6923672256969251  5.4445207519899030 22.1557826283686339   T   T   T
  4.0009126972077862  4.5653388913394606 21.8524935449208222   T   T   T
