Mo Pd O
 1.0000000000000000
     8.4157636701125895    0.0000000000000000    0.0000000000000005
    -4.2078818350562965    7.2882651305636630    0.0000000000000005
     0.0000000000000000    0.0000000000000000   54.9880536551249932
Mo Pd O
27 81 1
Selective dynamics
Cartesian
  0.0000000000000000  0.0000000000000000 37.8332024106538185   F   F   F
 -0.0000000000000003  1.6196144734585920 19.5038511922788160   F   F   F
  1.4026272783520979  0.8098072367292960 28.6685268014663137   F   F   F
  1.4026272783520979  0.8098072367292960 35.5996639212837138   F   F   F
 -0.0000000000000003  1.6196144734585920 33.2508646060600626   F   F   F
  0.0000000000000000  0.0000000000000000 30.9020652908364184   F   F   F
  0.0000000000000000  0.0000000000000000 17.2703127029087113   F   F   F
  1.4026272783520988  0.8098072367292960 14.9215133876850654   F   F   F
  0.0040261278190880  1.6273928020182444 40.0275205575858664   T   T   T
 -0.0000000000000003  1.6196144734585920 26.4349883120962090   F   F   F
  0.0000000000000005  0.0000000000000003 24.0861889968725613   F   F   F
  1.4026272783520979  0.8098072367292960 21.7373896816489278   F   F   F
 -1.4026272783520990  2.4294217101878877 37.8332024106538185   F   F   F
 -1.4026272783520994  4.0490361836464794 19.5038511922788160   F   F   F
 -0.0000000000000011  3.2392289469171835 28.6685268014663137   F   F   F
 -0.0000000000000011  3.2392289469171835 35.5996639212837138   F   F   F
 -1.4026272783520994  4.0490361836464794 33.2508646060600626   F   F   F
 -1.4026272783520990  2.4294217101878877 30.9020652908364184   F   F   F
 -1.4026272783520990  2.4294217101878877 17.2703127029087113   F   F   F
 -0.0000000000000002  3.2392289469171835 14.9215133876850654   F   F   F
 -1.3856301978957504  4.0577983526209787 40.0365819658223145   T   T   T
 -1.4026272783520994  4.0490361836464794 26.4349883120962090   F   F   F
 -1.4026272783520985  2.4294217101878881 24.0861889968725613   F   F   F
 -0.0000000000000011  3.2392289469171835 21.7373896816489278   F   F   F
 -2.8052545567041980  4.8588434203757753 37.8332024106538185   F   F   F
 -2.8052545567041984  6.4784578938343671 19.5038511922788160   F   F   F
 -1.4026272783521001  5.6686506571050712 28.6685268014663137   F   F   F
 -1.4026272783521001  5.6686506571050712 35.5996639212837138   F   F   F
 -2.8052545567041984  6.4784578938343671 33.2508646060600626   F   F   F
 -2.8052545567041980  4.8588434203757753 30.9020652908364184   F   F   F
 -2.8052545567041980  4.8588434203757753 17.2703127029087113   F   F   F
 -1.4026272783520992  5.6686506571050712 14.9215133876850654   F   F   F
 -2.8005491361144546  6.4838019819418165 40.0271188703268663   T   T   T
 -2.8052545567041984  6.4784578938343671 26.4349883120962090   F   F   F
 -2.8052545567041975  4.8588434203757753 24.0861889968725613   F   F   F
 -1.4026272783521001  5.6686506571050712 21.7373896816489278   F   F   F
  2.8052545567041962  0.0000000000000000 37.8332024106538185   F   F   F
  2.8052545567041958  1.6196144734585920 19.5038511922788160   F   F   F
  4.2078818350562939  0.8098072367292960 28.6685268014663137   F   F   F
  4.2078818350562939  0.8098072367292960 35.5996639212837138   F   F   F
  2.8052545567041958  1.6196144734585920 33.2508646060600626   F   F   F
  2.8052545567041962  0.0000000000000000 30.9020652908364184   F   F   F
  2.8052545567041962  0.0000000000000000 17.2703127029087113   F   F   F
  4.2078818350562948  0.8098072367292960 14.9215133876850654   F   F   F
  2.8200885037657568  1.6291038513145628 40.0878087053647860   T   T   T
  2.8052545567041958  1.6196144734585920 26.4349883120962090   F   F   F
  2.8052545567041967  0.0000000000000003 24.0861889968725613   F   F   F
  4.2078818350562939  0.8098072367292960 21.7373896816489278   F   F   F
  1.4026272783520972  2.4294217101878877 37.8332024106538185   F   F   F
  1.4026272783520968  4.0490361836464794 19.5038511922788160   F   F   F
  2.8052545567041953  3.2392289469171835 28.6685268014663137   F   F   F
  2.8052545567041953  3.2392289469171835 35.5996639212837138   F   F   F
  1.4026272783520968  4.0490361836464794 33.2508646060600626   F   F   F
  1.4026272783520972  2.4294217101878877 30.9020652908364184   F   F   F
  1.4026272783520972  2.4294217101878877 17.2703127029087113   F   F   F
  2.8052545567041962  3.2392289469171835 14.9215133876850654   F   F   F
  1.4029346223186936  4.0592429649887558 40.0371932741404990   T   T   T
  1.4026272783520968  4.0490361836464794 26.4349883120962090   F   F   F
  1.4026272783520977  2.4294217101878881 24.0861889968725613   F   F   F
  2.8052545567041953  3.2392289469171835 21.7373896816489278   F   F   F
 -0.0000000000000018  4.8588434203757753 37.8332024106538185   F   F   F
 -0.0000000000000021  6.4784578938343671 19.5038511922788160   F   F   F
  1.4026272783520961  5.6686506571050712 28.6685268014663137   F   F   F
  1.4026272783520961  5.6686506571050712 35.5996639212837138   F   F   F
 -0.0000000000000021  6.4784578938343671 33.2508646060600626   F   F   F
 -0.0000000000000018  4.8588434203757753 30.9020652908364184   F   F   F
 -0.0000000000000018  4.8588434203757753 17.2703127029087113   F   F   F
  1.4026272783520970  5.6686506571050712 14.9215133876850654   F   F   F
  0.0110206095123410  6.4770048015962871 40.0363093193632622   T   T   T
 -0.0000000000000021  6.4784578938343671 26.4349883120962090   F   F   F
 -0.0000000000000013  4.8588434203757753 24.0861889968725613   F   F   F
  1.4026272783520961  5.6686506571050712 21.7373896816489278   F   F   F
  5.6105091134083924  0.0000000000000000 37.8332024106538185   F   F   F
  5.6105091134083924  1.6196144734585920 19.5038511922788160   F   F   F
  7.0131363917604901  0.8098072367292960 28.6685268014663137   F   F   F
  7.0131363917604901  0.8098072367292960 35.5996639212837138   F   F   F
  5.6105091134083924  1.6196144734585920 33.2508646060600626   F   F   F
  5.6105091134083924  0.0000000000000000 30.9020652908364184   F   F   F
  5.6105091134083924  0.0000000000000000 17.2703127029087113   F   F   F
  7.0131363917604910  0.8098072367292960 14.9215133876850654   F   F   F
  5.6060090804819485  1.6317137374299142 40.0824720067107947   T   T   T
  5.6105091134083924  1.6196144734585920 26.4349883120962090   F   F   F
  5.6105091134083933  0.0000000000000003 24.0861889968725613   F   F   F
  7.0131363917604901  0.8098072367292960 21.7373896816489278   F   F   F
  4.2078818350562930  2.4294217101878877 37.8332024106538185   F   F   F
  4.2078818350562930  4.0490361836464794 19.5038511922788160   F   F   F
  5.6105091134083906  3.2392289469171835 28.6685268014663137   F   F   F
  5.6105091134083906  3.2392289469171835 35.5996639212837138   F   F   F
  4.2078818350562930  4.0490361836464794 33.2508646060600626   F   F   F
  4.2078818350562930  2.4294217101878877 30.9020652908364184   F   F   F
  4.2078818350562930  2.4294217101878877 17.2703127029087113   F   F   F
  5.6105091134083915  3.2392289469171835 14.9215133876850654   F   F   F
  4.2176424625793576  4.0372644416830221 40.0841948638631393   T   T   T
  4.2078818350562930  4.0490361836464794 26.4349883120962090   F   F   F
  4.2078818350562939  2.4294217101878881 24.0861889968725613   F   F   F
  5.6105091134083906  3.2392289469171835 21.7373896816489278   F   F   F
  2.8052545567041944  4.8588434203757753 37.8332024106538185   F   F   F
  2.8052545567041940  6.4784578938343671 19.5038511922788160   F   F   F
  4.2078818350562921  5.6686506571050712 28.6685268014663137   F   F   F
  4.2078818350562921  5.6686506571050712 35.5996639212837138   F   F   F
  2.8052545567041940  6.4784578938343671 33.2508646060600626   F   F   F
  2.8052545567041944  4.8588434203757753 30.9020652908364184   F   F   F
  2.8052545567041944  4.8588434203757753 17.2703127029087113   F   F   F
  4.2078818350562930  5.6686506571050712 14.9215133876850654   F   F   F
  2.8154420950848995  6.4887769107554973 40.0264201506111377   T   T   T
  2.8052545567041940  6.4784578938343671 26.4349883120962090   F   F   F
  2.8052545567041949  4.8588434203757753 24.0861889968725613   F   F   F
  4.2078818350562921  5.6686506571050712 21.7373896816489278   F   F   F
  4.2209392534614247  2.4362107689358377 41.4478206548131141   T   T   T
