Au Te O                                 
   1.00000000000000     
     8.5241530005360673    0.0000000000000000   -0.0770182540525434
    -4.2066496155703907   12.7802637406406916   -0.0851590815318037
     0.0000000000000000    0.0000000000000000   36.2381287890936647
   Au   Te   O 
    12    24     1
Selective dynamics
Direct
  0.3333333333333357  0.0000000000000000  0.4166666666666643   F   F   F
  0.1727132479693836  0.1567532722175287  0.5816276432121867   T   T   T
  0.0000000000000000  0.3333333333333357  0.5000000000000000   F   F   F
  0.4972139988950985  0.2974977065907822  0.5818032447846875   T   T   T
  0.3333271833333313  0.4838922149999973  0.4973143441666679   F   F   F
  0.1666605166666670  0.1505588816666688  0.4139810108333322   F   F   F
  0.3266968744078866  0.0079287046086236  0.5814388008900693   T   T   T
  0.1666728166666687  0.1827744516666669  0.5026856558333321   F   F   F
  0.0000061499999973  0.3494411183333312  0.4193523225000035   F   F   F
  0.3333333333333357  0.5000000000000000  0.4166666666666643   F   F   F
  0.1842761847232595  0.6679192637319744  0.5811864942167801   T   T   T
  0.0000000000000000  0.8333333333333357  0.5000000000000000   F   F   F
  0.5145958040616776  0.8048891190698342  0.5817855432536518   T   T   T
  0.3333271833333313  0.9838922149999973  0.4973143441666679   F   F   F
  0.1666605166666670  0.6505588816666688  0.4139810108333322   F   F   F
  0.3547895562352181  0.5311708645426876  0.5833002075412281   T   T   T
  0.1666728166666687  0.6827744516666669  0.5026856558333321   F   F   F
  0.0000061499999973  0.8494411183333312  0.4193523225000035   F   F   F
  0.8333333333333357  0.0000000000000000  0.4166666666666643   F   F   F
  0.6566570945258974  0.1531847509353241  0.5803282388991846   T   T   T
  0.5000000000000000  0.3333333333333357  0.5000000000000000   F   F   F
  0.0011522013872636  0.2926795543833123  0.5849818387094459   T   T   T
  0.8333271833333313  0.4838922149999973  0.4973143441666679   F   F   F
  0.6666605166666670  0.1505588816666688  0.4139810108333322   F   F   F
  0.8380778378603466  0.0200764414371903  0.5804977257851505   T   T   T
  0.6666728166666687  0.1827744516666669  0.5026856558333321   F   F   F
  0.5000061499999973  0.3494411183333312  0.4193523225000035   F   F   F
  0.8333333333333357  0.5000000000000000  0.4166666666666643   F   F   F
  0.6999601055887723  0.6755090501954513  0.5805289586772915   T   T   T
  0.5000000000000000  0.8333333333333357  0.5000000000000000   F   F   F
  0.0295820134862197  0.8140727392419222  0.5828470515804725   T   T   T
  0.8333271833333313  0.9838922149999973  0.4973143441666679   F   F   F
  0.6666605166666670  0.6505588816666688  0.4139810108333322   F   F   F
  0.8524873398072970  0.5265445216691376  0.5802793665174164   T   T   T
  0.6666728166666687  0.6827744516666669  0.5026856558333321   F   F   F
  0.5000061499999973  0.8494411183333312  0.4193523225000035   F   F   F
  0.1826226980798253  0.4130593251470742  0.6084351890504252   T   T   T
 
  0.00000000E+00  0.00000000E+00  0.00000000E+00
  0.00000000E+00  0.00000000E+00  0.00000000E+00
  0.00000000E+00  0.00000000E+00  0.00000000E+00
  0.00000000E+00  0.00000000E+00  0.00000000E+00
  0.00000000E+00  0.00000000E+00  0.00000000E+00
  0.00000000E+00  0.00000000E+00  0.00000000E+00
  0.00000000E+00  0.00000000E+00  0.00000000E+00
  0.00000000E+00  0.00000000E+00  0.00000000E+00
  0.00000000E+00  0.00000000E+00  0.00000000E+00
  0.00000000E+00  0.00000000E+00  0.00000000E+00
  0.00000000E+00  0.00000000E+00  0.00000000E+00
  0.00000000E+00  0.00000000E+00  0.00000000E+00
  0.00000000E+00  0.00000000E+00  0.00000000E+00
  0.00000000E+00  0.00000000E+00  0.00000000E+00
  0.00000000E+00  0.00000000E+00  0.00000000E+00
  0.00000000E+00  0.00000000E+00  0.00000000E+00
  0.00000000E+00  0.00000000E+00  0.00000000E+00
  0.00000000E+00  0.00000000E+00  0.00000000E+00
  0.00000000E+00  0.00000000E+00  0.00000000E+00
  0.00000000E+00  0.00000000E+00  0.00000000E+00
  0.00000000E+00  0.00000000E+00  0.00000000E+00
  0.00000000E+00  0.00000000E+00  0.00000000E+00
  0.00000000E+00  0.00000000E+00  0.00000000E+00
  0.00000000E+00  0.00000000E+00  0.00000000E+00
  0.00000000E+00  0.00000000E+00  0.00000000E+00
  0.00000000E+00  0.00000000E+00  0.00000000E+00
  0.00000000E+00  0.00000000E+00  0.00000000E+00
  0.00000000E+00  0.00000000E+00  0.00000000E+00
  0.00000000E+00  0.00000000E+00  0.00000000E+00
  0.00000000E+00  0.00000000E+00  0.00000000E+00
  0.00000000E+00  0.00000000E+00  0.00000000E+00
  0.00000000E+00  0.00000000E+00  0.00000000E+00
  0.00000000E+00  0.00000000E+00  0.00000000E+00
  0.00000000E+00  0.00000000E+00  0.00000000E+00
  0.00000000E+00  0.00000000E+00  0.00000000E+00
  0.00000000E+00  0.00000000E+00  0.00000000E+00
  0.00000000E+00  0.00000000E+00  0.00000000E+00
