Ni S
 1.0000000000000000
     8.2184449857544060    0.0000000000000000    0.0911314190353902
     0.0901264975783482    8.2179507906963032    0.0911314190353902
     0.0000000000000000    0.0000000000000000   32.8758009288064983
Ni S
24 16
Selective dynamics
Cartesian
  2.1987916731931434  2.9735186792289725 19.4839209154507955   T   T   T
  2.0881342636174911  3.0567093244948307 15.4922366081929628   F   F   F
  0.9909772744394896  1.0107339647887676 18.5675886764671780   T   T   T
  1.0138221280758326  1.0522660708533191 14.4059457611116919   F   F   F
  3.1069405964116501  0.0000000000000000 17.4746957396489258   F   F   F
  3.1520038452008254  4.1089753953481498 13.4107863330658077   F   F   F
  3.0739634604713775  1.0082342494270140 15.4366638768458504   F   F   F
  3.0175470097627404  0.9104340936455717 19.5970223381943747   T   T   T
  1.0803222811949953  3.1007411459211358 17.5302684709960417   F   F   F
  1.0803222811949953  3.1007411459211340 13.4207933548952258   F   F   F
  2.2444051493493746  7.0821172406105397 19.5302481965415851   T   T   T
  2.1331975124066651  7.1656847198429823 15.5378023177106570   F   F   F
  1.0355242380983753  5.1203717919053524 18.6140504429533600   T   T   T
  1.0588853768650068  5.1612414662014707 14.4515114706293861   F   F   F
  3.1520038452008241  4.1089753953481516 17.5202614491666218   F   F   F
  3.1970670939899994  8.2179507906963014 13.4563520425835019   F   F   F
  3.1190267092605515  5.1172096447751656 15.4822295863635446   F   F   F
  3.0628651925361661  5.0193017766921812 19.6432081143369039   T   T   T
  1.1253855299841695  7.2097165412692874 17.5758341805137377   F   F   F
  1.1253855299841695  7.2097165412692856 13.4663590644129201   F   F   F
  6.3069251724974258  2.9731970772458127 19.5295768735311199   T   T   T
  6.1973567564946936  3.0567093244948307 15.5378023177106570   F   F   F
  5.1005170594591194  1.0109210984150088 18.6096819283922947   T   T   T
  5.1230446209530358  1.0522660708533191 14.4515114706293861   F   F   F
  7.2161630892888535  0.0000000000000000 17.5202614491666218   F   F   F
  7.2612263380780284  4.1089753953481498 13.4563520425835019   F   F   F
  7.1831859533485805  1.0082342494270140 15.4822295863635446   F   F   F
  7.1278806819973379  0.9101327044763909 19.6420797720796152   T   T   T
  5.1895447740721981  3.1007411459211358 17.5758341805137377   F   F   F
  5.1895447740721981  3.1007411459211340 13.4663590644129201   F   F   F
  6.3523363541081679  7.0819067876110857 19.5759974449422707   T   T   T
  6.2424200052838685  7.1656847198429823 15.5833680272283530   F   F   F
  5.1451472126847992  5.1206164161050474 18.6562530657709331   T   T   T
  5.1681078697422098  5.1612414662014707 14.4970771801470821   F   F   F
  7.2612263380780266  4.1089753953481516 17.5658271586843142   F   F   F
  7.3062895868672024  8.2179507906963014 13.5019177521011979   F   F   F
  7.2282492021377545  5.1172096447751656 15.5277952958812406   F   F   F
  7.1732875018542996  5.0191273421712950 19.6883124689592179   T   T   T
  5.2346080228613721  7.2097165412692874 17.6213998900314301   F   F   F
  5.2346080228613721  7.2097165412692856 13.5119247739306161   F   F   F
