Hg Pd O                                 
   1.00000000000000     
    10.7611006800000002    0.0000000000000000    0.0000000000000007
    -0.0000000000000007   10.7611006800000002    0.0000000000000007
     0.0000000000000000    0.0000000000000000   32.2833020400000024
   Hg   Pd   O 
    32    32     1
Selective dynamics
Direct
  0.1717827149999991  0.3282172850000009  0.4739275716666640   F   F   F
  0.3282172850000009  0.0782172850000009  0.4427390950000003   F   F   F
  0.0782172850000009  0.1717827149999991  0.3905942383333354   F   F   F
  0.4217827149999991  0.4217827149999991  0.3594057616666646   F   F   F
  0.3262737399999978  0.1737262600000022  0.3587579133333350   F   F   F
  0.1737262600000022  0.4237262600000022  0.3912420866666650   F   F   F
  0.4237262600000022  0.3262737399999978  0.4420912466666636   F   F   F
  0.0762737399999978  0.0762737399999978  0.4745754200000007   F   F   F
  0.1065332504382681  0.3122525478668550  0.6501039053625703   T   T   T
  0.3107447756759143  0.0732090200565736  0.6207160138489272   T   T   T
  0.0782172850000009  0.1717827149999991  0.5572609049999997   F   F   F
  0.4217827149999991  0.4217827149999991  0.5260724283333360   F   F   F
  0.3262737399999978  0.1737262600000022  0.5254245799999993   F   F   F
  0.1737262600000022  0.4237262600000022  0.5579087533333364   F   F   F
  0.4018585694722887  0.3134982512957407  0.6033172038033072   T   T   T
  0.0583480388349571  0.0716034888037598  0.6344933206441112   T   T   T
  0.1717827149999991  0.8282172850000009  0.4739275716666640   F   F   F
  0.3282172850000009  0.5782172850000009  0.4427390950000003   F   F   F
  0.0782172850000009  0.6717827149999991  0.3905942383333354   F   F   F
  0.4217827149999991  0.9217827149999991  0.3594057616666646   F   F   F
  0.3262737399999978  0.6737262600000022  0.3587579133333350   F   F   F
  0.1737262600000022  0.9237262600000022  0.3912420866666650   F   F   F
  0.4237262600000022  0.8262737399999978  0.4420912466666636   F   F   F
  0.0762737399999978  0.5762737399999978  0.4745754200000007   F   F   F
  0.1456950714360303  0.8337782551421995  0.6444515404136553   T   T   T
  0.3173904775128378  0.5680159563366303  0.6197315004323016   T   T   T
  0.0782172850000009  0.6717827149999991  0.5572609049999997   F   F   F
  0.4217827149999991  0.9217827149999991  0.5260724283333360   F   F   F
  0.3262737399999978  0.6737262600000022  0.5254245799999993   F   F   F
  0.1737262600000022  0.9237262600000022  0.5579087533333364   F   F   F
  0.3972987785457178  0.8156602758613047  0.6044257106597328   T   T   T
  0.0598399946575228  0.5975751689821749  0.6391230893505622   T   T   T
  0.6717827149999991  0.3282172850000009  0.4739275716666640   F   F   F
  0.8282172850000009  0.0782172850000009  0.4427390950000003   F   F   F
  0.5782172850000009  0.1717827149999991  0.3905942383333354   F   F   F
  0.9217827149999991  0.4217827149999991  0.3594057616666646   F   F   F
  0.8262737399999978  0.1737262600000022  0.3587579133333350   F   F   F
  0.6737262600000022  0.4237262600000022  0.3912420866666650   F   F   F
  0.9237262600000022  0.3262737399999978  0.4420912466666636   F   F   F
  0.5762737399999978  0.0762737399999978  0.4745754200000007   F   F   F
  0.6316296766633016  0.2840970149362221  0.6482365996602439   T   T   T
  0.8100312912091496  0.0446726189350102  0.6271895372640586   T   T   T
  0.5782172850000009  0.1717827149999991  0.5572609049999997   F   F   F
  0.9217827149999991  0.4217827149999991  0.5260724283333360   F   F   F
  0.8262737399999978  0.1737262600000022  0.5254245799999993   F   F   F
  0.6737262600000022  0.4237262600000022  0.5579087533333364   F   F   F
  0.8772901450664108  0.2923145200627957  0.6039368824897764   T   T   T
  0.5575625939247573  0.0317559715862572  0.6298034301162758   T   T   T
  0.6717827149999991  0.8282172850000009  0.4739275716666640   F   F   F
  0.8282172850000009  0.5782172850000009  0.4427390950000003   F   F   F
  0.5782172850000009  0.6717827149999991  0.3905942383333354   F   F   F
  0.9217827149999991  0.9217827149999991  0.3594057616666646   F   F   F
  0.8262737399999978  0.6737262600000022  0.3587579133333350   F   F   F
  0.6737262600000022  0.9237262600000022  0.3912420866666650   F   F   F
  0.9237262600000022  0.8262737399999978  0.4420912466666636   F   F   F
  0.5762737399999978  0.5762737399999978  0.4745754200000007   F   F   F
  0.6347673022397373  0.7853103183794232  0.6462585227382860   T   T   T
  0.8181037277278662  0.5507528815284672  0.6225989899087594   T   T   T
  0.5782172850000009  0.6717827149999991  0.5572609049999997   F   F   F
  0.9217827149999991  0.9217827149999991  0.5260724283333360   F   F   F
  0.8262737399999978  0.6737262600000022  0.5254245799999993   F   F   F
  0.6737262600000022  0.9237262600000022  0.5579087533333364   F   F   F
  0.8969531569750160  0.8008047909446461  0.6055931911976344   T   T   T
  0.5653336498717962  0.5316846032517688  0.6306388133169563   T   T   T
  0.1761275013034265  0.4878253678305668  0.6730682596236122   T   T   T
 
  0.00000000E+00  0.00000000E+00  0.00000000E+00
  0.00000000E+00  0.00000000E+00  0.00000000E+00
  0.00000000E+00  0.00000000E+00  0.00000000E+00
  0.00000000E+00  0.00000000E+00  0.00000000E+00
  0.00000000E+00  0.00000000E+00  0.00000000E+00
  0.00000000E+00  0.00000000E+00  0.00000000E+00
  0.00000000E+00  0.00000000E+00  0.00000000E+00
  0.00000000E+00  0.00000000E+00  0.00000000E+00
  0.00000000E+00  0.00000000E+00  0.00000000E+00
  0.00000000E+00  0.00000000E+00  0.00000000E+00
  0.00000000E+00  0.00000000E+00  0.00000000E+00
  0.00000000E+00  0.00000000E+00  0.00000000E+00
  0.00000000E+00  0.00000000E+00  0.00000000E+00
  0.00000000E+00  0.00000000E+00  0.00000000E+00
  0.00000000E+00  0.00000000E+00  0.00000000E+00
  0.00000000E+00  0.00000000E+00  0.00000000E+00
  0.00000000E+00  0.00000000E+00  0.00000000E+00
  0.00000000E+00  0.00000000E+00  0.00000000E+00
  0.00000000E+00  0.00000000E+00  0.00000000E+00
  0.00000000E+00  0.00000000E+00  0.00000000E+00
  0.00000000E+00  0.00000000E+00  0.00000000E+00
  0.00000000E+00  0.00000000E+00  0.00000000E+00
  0.00000000E+00  0.00000000E+00  0.00000000E+00
  0.00000000E+00  0.00000000E+00  0.00000000E+00
  0.00000000E+00  0.00000000E+00  0.00000000E+00
  0.00000000E+00  0.00000000E+00  0.00000000E+00
  0.00000000E+00  0.00000000E+00  0.00000000E+00
  0.00000000E+00  0.00000000E+00  0.00000000E+00
  0.00000000E+00  0.00000000E+00  0.00000000E+00
  0.00000000E+00  0.00000000E+00  0.00000000E+00
  0.00000000E+00  0.00000000E+00  0.00000000E+00
  0.00000000E+00  0.00000000E+00  0.00000000E+00
  0.00000000E+00  0.00000000E+00  0.00000000E+00
  0.00000000E+00  0.00000000E+00  0.00000000E+00
  0.00000000E+00  0.00000000E+00  0.00000000E+00
  0.00000000E+00  0.00000000E+00  0.00000000E+00
  0.00000000E+00  0.00000000E+00  0.00000000E+00
  0.00000000E+00  0.00000000E+00  0.00000000E+00
  0.00000000E+00  0.00000000E+00  0.00000000E+00
  0.00000000E+00  0.00000000E+00  0.00000000E+00
  0.00000000E+00  0.00000000E+00  0.00000000E+00
  0.00000000E+00  0.00000000E+00  0.00000000E+00
  0.00000000E+00  0.00000000E+00  0.00000000E+00
  0.00000000E+00  0.00000000E+00  0.00000000E+00
  0.00000000E+00  0.00000000E+00  0.00000000E+00
  0.00000000E+00  0.00000000E+00  0.00000000E+00
  0.00000000E+00  0.00000000E+00  0.00000000E+00
  0.00000000E+00  0.00000000E+00  0.00000000E+00
  0.00000000E+00  0.00000000E+00  0.00000000E+00
  0.00000000E+00  0.00000000E+00  0.00000000E+00
  0.00000000E+00  0.00000000E+00  0.00000000E+00
  0.00000000E+00  0.00000000E+00  0.00000000E+00
  0.00000000E+00  0.00000000E+00  0.00000000E+00
  0.00000000E+00  0.00000000E+00  0.00000000E+00
  0.00000000E+00  0.00000000E+00  0.00000000E+00
  0.00000000E+00  0.00000000E+00  0.00000000E+00
  0.00000000E+00  0.00000000E+00  0.00000000E+00
  0.00000000E+00  0.00000000E+00  0.00000000E+00
  0.00000000E+00  0.00000000E+00  0.00000000E+00
  0.00000000E+00  0.00000000E+00  0.00000000E+00
  0.00000000E+00  0.00000000E+00  0.00000000E+00
  0.00000000E+00  0.00000000E+00  0.00000000E+00
  0.00000000E+00  0.00000000E+00  0.00000000E+00
  0.00000000E+00  0.00000000E+00  0.00000000E+00
  0.00000000E+00  0.00000000E+00  0.00000000E+00
