Hg Pd O
 1.0000000000000000
    10.7611006800000002    0.0000000000000000    0.0000000000000007
    -0.0000000000000007   10.7611006800000002    0.0000000000000007
     0.0000000000000000    0.0000000000000000   32.2833020400000024
Hg Pd O
32 32 1
Selective dynamics
Cartesian
  1.8485710911987452  3.5319792488012549 15.2999469411987477   F   F   F
  3.5319792488012549  0.8417040788012553 14.2930799288012569   F   F   F
  0.8417040788012545  1.8485710911987465 12.6096717711987480   F   F   F
  4.5388462611987457  4.5388462611987457 11.6028047588012555   F   F   F
  3.5110645653801429  1.8694857746198570 11.5818900753801444   F   F   F
  1.8694857746198568  4.5597609446198568 12.6305864546198592   F   F   F
  4.5597609446198568  3.5110645653801429 14.2721652453801457   F   F   F
  0.8207893953801436  0.8207893953801429 15.3208616246198588   F   F   F
  1.1464150337338550  3.3601811051817290 20.9875007342034046   T   T   T
  3.3439558168324961  0.7878096355129554 20.0387625561496456   T   T   T
  0.8417040788012545  1.8485710911987465 17.9902221111987473   F   F   F
  4.5388462611987457  4.5388462611987457 16.9833550988012547   F   F   F
  3.5110645653801429  1.8694857746198570 16.9624404153801471   F   F   F
  1.8694857746198568  4.5597609446198568 18.0111367946198584   F   F   F
  4.3244405252120579  3.3735862451974343 19.4770715163104704   T   T   T
  0.6278891203834979  0.7705323520564887 20.4835395127163267   T   T   T
  1.8485710911987450  8.9125295888012559 15.2999469411987477   F   F   F
  3.5319792488012545  6.2222544188012554 14.2930799288012569   F   F   F
  0.8417040788012542  7.2291214311987471 12.6096717711987480   F   F   F
  4.5388462611987457  9.9193966011987449 11.6028047588012555   F   F   F
  3.5110645653801424  7.2500361146198573 11.5818900753801444   F   F   F
  1.8694857746198565  9.9403112846198560 12.6305864546198592   F   F   F
  4.5597609446198568  8.8916149053801430 14.2721652453801457   F   F   F
  0.8207893953801433  6.2013397353801434 15.3208616246198588   F   F   F
  1.5678393323028910  8.9723717483799490 20.8050237293173090   T   T   T
  3.4154708833889535  6.1124768939849465 20.0069792121583809   T   T   T
  0.8417040788012542  7.2291214311987471 17.9902221111987473   F   F   F
  4.5388462611987457  9.9193966011987449 16.9833550988012547   F   F   F
  3.5110645653801424  7.2500361146198573 16.9624404153801471   F   F   F
  1.8694857746198565  9.9403112846198560 18.0111367946198584   F   F   F
  4.2753721559714997  8.7774023492200879 19.5128577779697387   T   T   T
  0.6439442072002750  6.4305665572852018 20.6330037342420312   T   T   T
  7.2291214311987453  3.5319792488012549 15.2999469411987477   F   F   F
  8.9125295888012559  0.8417040788012553 14.2930799288012569   F   F   F
  6.2222544188012545  1.8485710911987465 12.6096717711987480   F   F   F
  9.9193966011987449  4.5388462611987457 11.6028047588012555   F   F   F
  8.8916149053801430  1.8694857746198570 11.5818900753801444   F   F   F
  7.2500361146198564  4.5597609446198568 12.6305864546198592   F   F   F
  9.9403112846198560  3.5110645653801429 14.2721652453801457   F   F   F
  6.2013397353801434  0.8207893953801429 15.3208616246198588   F   F   F
  6.7970305430496403  3.0571965806161838 20.9272179402141596   T   T   T
  8.7168282786520948  0.4807265499989324 20.2477492678234334   T   T   T
  6.2222544188012545  1.8485710911987465 17.9902221111987473   F   F   F
  9.9193966011987449  4.5388462611987457 16.9833550988012547   F   F   F
  8.8916149053801430  1.8694857746198570 16.9624404153801471   F   F   F
  7.2500361146198564  4.5597609446198568 18.0111367946198584   F   F   F
  9.4406075766314821  3.1456259806216211 19.4970767905134288   T   T   T
  5.9999872086262354  0.3417292074308987 20.3321343602717590   T   T   T
  7.2291214311987453  8.9125295888012559 15.2999469411987477   F   F   F
  8.9125295888012559  6.2222544188012554 14.2930799288012569   F   F   F
  6.2222544188012545  7.2291214311987471 12.6096717711987480   F   F   F
  9.9193966011987449  9.9193966011987449 11.6028047588012555   F   F   F
  8.8916149053801430  7.2500361146198573 11.5818900753801444   F   F   F
  7.2500361146198564  9.9403112846198560 12.6305864546198592   F   F   F
  9.9403112846198560  8.8916149053801430 14.2721652453801457   F   F   F
  6.2013397353801434  6.2013397353801434 15.3208616246198588   F   F   F
  6.8307948477738130  8.4508034011238422 20.8633590854842446   T   T   T
  8.8036965807629102  5.9267072079279179 20.0995512410234873   T   T   T
  6.2222544188012545  7.2291214311987471 17.9902221111987473   F   F   F
  9.9193966011987449  9.9193966011987449 16.9833550988012547   F   F   F
  8.8916149053801430  7.2500361146198573 16.9624404153801471   F   F   F
  7.2500361146198564  9.9403112846198560 18.0111367946198584   F   F   F
  9.6522032274520093  8.6175409803816958 19.5505479048007054   T   T   T
  6.0836123240622424  5.7215115455981600 20.3591032884585204   T   T   T
  1.8953257740430010  5.2495378974827531 21.7288659189661928   T   T   T
