Cu S Si O                               
   1.00000000000000     
    12.7759398915574174    0.0000000000000000   -1.0669018186984747
    -2.0788424167086705   12.8182868293803516   -0.5858870654457955
     0.0000000000000000    0.0000000000000000   32.3571556653272836
   Cu   S    Si   O 
    32    48    16     1
Selective dynamics
Direct
  0.2080262572957636  0.2549644768196728  0.6370495308466957   T   T   T
  0.4651253070430599  0.0945548007852040  0.5715121389799620   T   T   T
  0.4953351613010000  0.3527957110970021  0.5101690273979997   F   F   F
  0.2307447996343299  0.2214824560970001  0.5393497507313327   F   F   F
  0.2603894196343362  0.4777863360970045  0.4818025207313354   F   F   F
  0.0512089938009979  0.3451625035970025  0.4001633723980049   F   F   F
  0.0786684946343357  0.1027957110970021  0.3435023607313354   F   F   F
  0.3140781329676656  0.4714824560970001  0.3726830840646684   F   F   F
  0.1471483296343337  0.1199352010970003  0.5875474307313340   F   F   F
  0.3722364044524653  0.2671620618761423  0.6696033519024525   T   T   T
  0.3659262035427773  0.4942735995174701  0.6132435942819896   T   T   T
  0.1068312863708698  0.3881466429695664  0.6375424374059193   T   T   T
  0.1756518379676635  0.3818428510970051  0.5316657840646712   F   F   F
  0.4115944754676661  0.2553265885970006  0.5597805090646659   F   F   F
  0.2304816629676694  0.3699352010970003  0.4208807640646697   F   F   F
  0.4407126538010004  0.0120141185970013  0.5004187823980004   F   F   F
  0.4538553304676682  0.2468634135970049  0.4473419090646686   F   F   F
  0.1912135721343304  0.1330875885970002  0.4726254257313371   F   F   F
  0.2589851713009992  0.1318428510970051  0.3649991173979998   F   F   F
  0.4949278088010018  0.0053265885970006  0.3931138423980016   F   F   F
  0.1946970679676667  0.4695972860970059  0.5900190240646666   F   F   F
  0.4286363942830960  0.3422778312937282  0.6195584059443959   T   T   T
  0.2780304013010024  0.2195972860969988  0.4233523573980023   F   F   F
  0.0139356096343306  0.0927441610970021  0.4515419407313317   F   F   F
  0.1690410750701545  0.7408766199340420  0.6391567798402491   T   T   T
  0.4659113144655933  0.5948694553095208  0.5698374628341725   T   T   T
  0.4953351613010000  0.8527957110970021  0.5101690273979997   F   F   F
  0.2307447996343299  0.7214824560970001  0.5393497507313327   F   F   F
  0.2603894196343362  0.9777863360970045  0.4818025207313354   F   F   F
  0.0512089938009979  0.8451625035970025  0.4001633723980049   F   F   F
  0.0786684946343357  0.6027957110970021  0.3435023607313354   F   F   F
  0.3140781329676656  0.9714824560970001  0.3726830840646684   F   F   F
  0.1471483296343337  0.6199352010970003  0.5875474307313340   F   F   F
  0.4076824880265235  0.7746180533943487  0.6771518425374765   T   T   T
  0.3652005899843616  0.9908625520254049  0.6158250657821185   T   T   T
  0.1021061827554632  0.8936573137205883  0.6377951742273495   T   T   T
  0.1756518379676635  0.8818428510970051  0.5316657840646712   F   F   F
  0.4115944754676661  0.7553265885970006  0.5597805090646659   F   F   F
  0.2304816629676694  0.8699352010970003  0.4208807640646697   F   F   F
  0.4407126538010004  0.5120141185970013  0.5004187823980004   F   F   F
  0.4538553304676682  0.7468634135970049  0.4473419090646686   F   F   F
  0.1912135721343304  0.6330875885970002  0.4726254257313371   F   F   F
  0.2589851713009992  0.6318428510970051  0.3649991173979998   F   F   F
  0.4949278088010018  0.5053265885970006  0.3931138423980016   F   F   F
  0.1946970679676667  0.9695972860970059  0.5900190240646666   F   F   F
  0.4385948021281010  0.8456888737902872  0.6184793196203771   T   T   T
  0.2780304013010024  0.7195972860969988  0.4233523573980023   F   F   F
  0.0139356096343306  0.5927441610970021  0.4515419407313317   F   F   F
  0.7081144259541432  0.2548271897327226  0.6371710940564626   T   T   T
  0.9659095617878037  0.0952858910375980  0.5693563353301556   T   T   T
  0.9953351613010000  0.3527957110970021  0.5101690273979997   F   F   F
  0.7307447996343299  0.2214824560970001  0.5393497507313327   F   F   F
  0.7603894196343362  0.4777863360970045  0.4818025207313354   F   F   F
  0.5512089938009979  0.3451625035970025  0.4001633723980049   F   F   F
  0.5786684946343357  0.1027957110970021  0.3435023607313354   F   F   F
  0.8140781329676656  0.4714824560970001  0.3726830840646684   F   F   F
  0.6471483296343337  0.1199352010970003  0.5875474307313340   F   F   F
  0.8723491094248033  0.2677423564046819  0.6697437074159538   T   T   T
  0.8658280066500126  0.4942684477744024  0.6132913207515500   T   T   T
  0.6067020927377200  0.3878831348409477  0.6376433468301101   T   T   T
  0.6756518379676635  0.3818428510970051  0.5316657840646712   F   F   F
  0.9115944754676661  0.2553265885970006  0.5597805090646659   F   F   F
  0.7304816629676623  0.3699352010970003  0.4208807640646697   F   F   F
  0.9407126538010004  0.0120141185970013  0.5004187823980004   F   F   F
  0.9538553304676682  0.2468634135970049  0.4473419090646686   F   F   F
  0.6912135721343304  0.1330875885970002  0.4726254257313371   F   F   F
  0.7589851713009992  0.1318428510970051  0.3649991173979998   F   F   F
  0.9949278088010018  0.0053265885970006  0.3931138423980016   F   F   F
  0.6946970679676667  0.4695972860970059  0.5900190240646666   F   F   F
  0.9281939659065870  0.3423205379322027  0.6195086802582424   T   T   T
  0.7780304013010024  0.2195972860969988  0.4233523573980023   F   F   F
  0.5139356096343306  0.0927441610970021  0.4515419407313317   F   F   F
  0.7113596204187544  0.7499153949383981  0.6367565804273170   T   T   T
  0.9654401392123972  0.5950826876187136  0.5700473592783055   T   T   T
  0.9953351613010000  0.8527957110970021  0.5101690273979997   F   F   F
  0.7307447996343299  0.7214824560970001  0.5393497507313327   F   F   F
  0.7603894196343362  0.9777863360970045  0.4818025207313354   F   F   F
  0.5512089938009979  0.8451625035970025  0.4001633723980049   F   F   F
  0.5786684946343357  0.6027957110970021  0.3435023607313354   F   F   F
  0.8140781329676656  0.9714824560970001  0.3726830840646684   F   F   F
  0.6471483296343337  0.6199352010970003  0.5875474307313340   F   F   F
  0.8739448546222945  0.7698678275302555  0.6700897918481701   T   T   T
  0.8649797397043386  0.9955004430178747  0.6130871203935087   T   T   T
  0.6116529876488173  0.8874156880493445  0.6383877408866212   T   T   T
  0.6756518379676635  0.8818428510970051  0.5316657840646712   F   F   F
  0.9115944754676661  0.7553265885970006  0.5597805090646659   F   F   F
  0.7304816629676694  0.8699352010970003  0.4208807640646697   F   F   F
  0.9407126538010004  0.5120141185970013  0.5004187823980004   F   F   F
  0.9538553304676682  0.7468634135970049  0.4473419090646686   F   F   F
  0.6912135721343304  0.6330875885970002  0.4726254257313371   F   F   F
  0.7589851713009992  0.6318428510970051  0.3649991173979998   F   F   F
  0.9949278088010018  0.5053265885970006  0.3931138423980016   F   F   F
  0.6946970679676667  0.9695972860970059  0.5900190240646666   F   F   F
  0.9266858230301409  0.8442605399755649  0.6191100791538489   T   T   T
  0.7780304013010024  0.7195972860969988  0.4233523573980023   F   F   F
  0.5139356096343306  0.5927441610970021  0.4515419407313317   F   F   F
  0.2858164872999751  0.7651480064309695  0.6839297891197731   T   T   T
 
  0.00000000E+00  0.00000000E+00  0.00000000E+00
  0.00000000E+00  0.00000000E+00  0.00000000E+00
  0.00000000E+00  0.00000000E+00  0.00000000E+00
  0.00000000E+00  0.00000000E+00  0.00000000E+00
  0.00000000E+00  0.00000000E+00  0.00000000E+00
  0.00000000E+00  0.00000000E+00  0.00000000E+00
  0.00000000E+00  0.00000000E+00  0.00000000E+00
  0.00000000E+00  0.00000000E+00  0.00000000E+00
  0.00000000E+00  0.00000000E+00  0.00000000E+00
  0.00000000E+00  0.00000000E+00  0.00000000E+00
  0.00000000E+00  0.00000000E+00  0.00000000E+00
  0.00000000E+00  0.00000000E+00  0.00000000E+00
  0.00000000E+00  0.00000000E+00  0.00000000E+00
  0.00000000E+00  0.00000000E+00  0.00000000E+00
  0.00000000E+00  0.00000000E+00  0.00000000E+00
  0.00000000E+00  0.00000000E+00  0.00000000E+00
  0.00000000E+00  0.00000000E+00  0.00000000E+00
  0.00000000E+00  0.00000000E+00  0.00000000E+00
  0.00000000E+00  0.00000000E+00  0.00000000E+00
  0.00000000E+00  0.00000000E+00  0.00000000E+00
  0.00000000E+00  0.00000000E+00  0.00000000E+00
  0.00000000E+00  0.00000000E+00  0.00000000E+00
  0.00000000E+00  0.00000000E+00  0.00000000E+00
  0.00000000E+00  0.00000000E+00  0.00000000E+00
  0.00000000E+00  0.00000000E+00  0.00000000E+00
  0.00000000E+00  0.00000000E+00  0.00000000E+00
  0.00000000E+00  0.00000000E+00  0.00000000E+00
  0.00000000E+00  0.00000000E+00  0.00000000E+00
  0.00000000E+00  0.00000000E+00  0.00000000E+00
  0.00000000E+00  0.00000000E+00  0.00000000E+00
  0.00000000E+00  0.00000000E+00  0.00000000E+00
  0.00000000E+00  0.00000000E+00  0.00000000E+00
  0.00000000E+00  0.00000000E+00  0.00000000E+00
  0.00000000E+00  0.00000000E+00  0.00000000E+00
  0.00000000E+00  0.00000000E+00  0.00000000E+00
  0.00000000E+00  0.00000000E+00  0.00000000E+00
  0.00000000E+00  0.00000000E+00  0.00000000E+00
  0.00000000E+00  0.00000000E+00  0.00000000E+00
  0.00000000E+00  0.00000000E+00  0.00000000E+00
  0.00000000E+00  0.00000000E+00  0.00000000E+00
  0.00000000E+00  0.00000000E+00  0.00000000E+00
  0.00000000E+00  0.00000000E+00  0.00000000E+00
  0.00000000E+00  0.00000000E+00  0.00000000E+00
  0.00000000E+00  0.00000000E+00  0.00000000E+00
  0.00000000E+00  0.00000000E+00  0.00000000E+00
  0.00000000E+00  0.00000000E+00  0.00000000E+00
  0.00000000E+00  0.00000000E+00  0.00000000E+00
  0.00000000E+00  0.00000000E+00  0.00000000E+00
  0.00000000E+00  0.00000000E+00  0.00000000E+00
  0.00000000E+00  0.00000000E+00  0.00000000E+00
  0.00000000E+00  0.00000000E+00  0.00000000E+00
  0.00000000E+00  0.00000000E+00  0.00000000E+00
  0.00000000E+00  0.00000000E+00  0.00000000E+00
  0.00000000E+00  0.00000000E+00  0.00000000E+00
  0.00000000E+00  0.00000000E+00  0.00000000E+00
  0.00000000E+00  0.00000000E+00  0.00000000E+00
  0.00000000E+00  0.00000000E+00  0.00000000E+00
  0.00000000E+00  0.00000000E+00  0.00000000E+00
  0.00000000E+00  0.00000000E+00  0.00000000E+00
  0.00000000E+00  0.00000000E+00  0.00000000E+00
  0.00000000E+00  0.00000000E+00  0.00000000E+00
  0.00000000E+00  0.00000000E+00  0.00000000E+00
  0.00000000E+00  0.00000000E+00  0.00000000E+00
  0.00000000E+00  0.00000000E+00  0.00000000E+00
  0.00000000E+00  0.00000000E+00  0.00000000E+00
  0.00000000E+00  0.00000000E+00  0.00000000E+00
  0.00000000E+00  0.00000000E+00  0.00000000E+00
  0.00000000E+00  0.00000000E+00  0.00000000E+00
  0.00000000E+00  0.00000000E+00  0.00000000E+00
  0.00000000E+00  0.00000000E+00  0.00000000E+00
  0.00000000E+00  0.00000000E+00  0.00000000E+00
  0.00000000E+00  0.00000000E+00  0.00000000E+00
  0.00000000E+00  0.00000000E+00  0.00000000E+00
  0.00000000E+00  0.00000000E+00  0.00000000E+00
  0.00000000E+00  0.00000000E+00  0.00000000E+00
  0.00000000E+00  0.00000000E+00  0.00000000E+00
  0.00000000E+00  0.00000000E+00  0.00000000E+00
  0.00000000E+00  0.00000000E+00  0.00000000E+00
  0.00000000E+00  0.00000000E+00  0.00000000E+00
  0.00000000E+00  0.00000000E+00  0.00000000E+00
  0.00000000E+00  0.00000000E+00  0.00000000E+00
  0.00000000E+00  0.00000000E+00  0.00000000E+00
  0.00000000E+00  0.00000000E+00  0.00000000E+00
  0.00000000E+00  0.00000000E+00  0.00000000E+00
  0.00000000E+00  0.00000000E+00  0.00000000E+00
  0.00000000E+00  0.00000000E+00  0.00000000E+00
  0.00000000E+00  0.00000000E+00  0.00000000E+00
  0.00000000E+00  0.00000000E+00  0.00000000E+00
  0.00000000E+00  0.00000000E+00  0.00000000E+00
  0.00000000E+00  0.00000000E+00  0.00000000E+00
  0.00000000E+00  0.00000000E+00  0.00000000E+00
  0.00000000E+00  0.00000000E+00  0.00000000E+00
  0.00000000E+00  0.00000000E+00  0.00000000E+00
  0.00000000E+00  0.00000000E+00  0.00000000E+00
  0.00000000E+00  0.00000000E+00  0.00000000E+00
  0.00000000E+00  0.00000000E+00  0.00000000E+00
  0.00000000E+00  0.00000000E+00  0.00000000E+00
