Cu S Si O
 1.0000000000000000
    12.7759398915574174    0.0000000000000000   -1.0669018186984747
    -2.0788424167086705   12.8182868293803516   -0.5858870654457955
     0.0000000000000000    0.0000000000000000   32.3571556653272836
Cu S Si O
32 48 16 1
Selective dynamics
Cartesian
  2.1276999899096793  3.2682077951774464 20.2417868547676427   T   T   T
  5.7458484342485843  1.2120305575596935 17.9408657748360945   T   T   T
  5.5949655582951188  4.5222366170165813 15.7724462068119298   F   F   F
  2.4875545661264291  2.8390256499270170 17.0758780898337896   F   F   F
  2.3334770720434812  6.1244022992500984 15.0320203835071968   F   F   F
 -0.0632954264261030  4.4243919738534059 12.6912873172900884   F   F   F
  0.7913678743233610  1.3176649096714959 10.9706011200765321   F   F   F
  3.0325056195790463  6.0435973572721053 11.4476385610262490   F   F   F
  1.6306318312543766  1.5373638086007926 18.7841023734172161   F   F   F
  4.2002821023706813  3.4245599390570685 21.1127933982054685   T   T   T
  3.6475342570720972  6.3357407708052289 19.1628226001293918   T   T   T
  0.5579743879037692  4.9753750014449718 20.2876712990604560   T   T   T
  1.4503262083390629  4.8945711891097492 16.7920724840326372   F   F   F
  4.7277225357830321  3.2728494478035688 17.5241816300555371   F   F   F
  2.1755828847069942  4.7419355159458787 13.1558628446096844   F   F   F
  5.6055429150715028  0.1540004181785710 15.7148923913532439   F   F   F
  5.2852382861988829  3.1643660431663312 13.8458586287699212   F   F   F
  2.1662649797252906  1.7059548840669454 15.0108340671800740   F   F   F
  3.0346984701460142  1.6899994817646613 11.4567764879479963   F   F   F
  6.3120947975899835  0.0682777404584807 12.1888856339708997   F   F   F
  1.5112192803076434  6.0194327074899654 18.6084837753623056   F   F   F
  4.7646911347023071  4.3874154168612822 19.3892986821400903   T   T   T
  3.0955915421145970  2.8148610001448744 13.2731877792776682   F   F   F
 -0.0147599849500702  1.1888212586916347 14.5414073340218977   F   F   F
  0.6194928712338861  9.4967690194963250 20.0668751607025158   T   T   T
  4.7158150923071567  7.6252073041946797 17.5927115406103951   T   T   T
  4.5555443499407833 10.9313800317067571 15.4795026740890318   F   F   F
  1.4481333577720938  9.2481690646171923 16.7829345571108917   F   F   F
  1.2940558636891459 12.5335457139402742 14.7390768507842989   F   F   F
 -1.1027166347804382 10.8335353885435808 12.3983437845671904   F   F   F
 -0.2480533340309743  7.7268083243616719 10.6776575873536341   F   F   F
  1.9930844112247110 12.4527407719622811 11.1546950283033510   F   F   F
  0.5912106229000413  7.9465072232909684 18.4911588406943181   F   F   F
  3.5982180957229639  9.9292763916250291 21.0219116919767437   T   T   T
  2.6059336837229168 12.7011604003534124 18.9561807896119561   T   T   T
 -0.5532702763240936 11.4551557744440338 20.0047182019368783   T   T   T
  0.4109049999847276 11.3037146037999250 16.4991289513097392   F   F   F
  3.6883013274286967  9.6819928624937450 17.2312380973326391   F   F   F
  1.1361616763526590 11.1510789306360536 12.8629193118867864   F   F   F
  4.5661217067171673  6.5631438328687466 15.4219488586303459   F   F   F
  4.2458170778445474  9.5735094578565061 13.5529150960470233   F   F   F
  1.1268437713709554  8.1150982987571219 14.7178905344571760   F   F   F
  1.9952772617916790  8.0991428964548362 11.1638329552250983   F   F   F
  5.2726735892356480  6.4774211551486562 11.8959421012480018   F   F   F
  0.4717980719533081 12.4285761221801412 18.3155402426394076   F   F   F
  3.8454069265643174 10.8402825526595663 19.0488158561350218   T   T   T
  2.0561703337602619  9.2240044148350506 12.9802442465547703   F   F   F
 -1.0541811933044056  7.5979646733818100 14.2484638012989997   F   F   F
  8.5170817713877884  3.2664480099189324 19.7122557525465183   T   T   T
 12.1423181500787507  1.2214018821129788 17.3363941320700121   T   T   T
 11.9829355040738275  4.5222366170165813 15.2389952974626919   F   F   F
  8.8755245119051374  2.8390256499270170 16.5424271804845517   F   F   F
  8.7214470178221895  6.1244022992500984 14.4985694741579589   F   F   F
  6.3246745193526053  4.4243919738534059 12.1578364079408505   F   F   F
  7.1793378201020701  1.3176649096714959 10.4371502107272942   F   F   F
  9.4204755653577550  6.0435973572721053 10.9141876516770111   F   F   F
  8.0186017770330853  1.5373638086007926 18.2506514640679782   F   F   F
 10.5884856192213199  3.4319983207693592 20.5834237618565687   T   T   T
 10.0342603549133891  6.3356747342848632 18.6310237683681592   T   T   T
  6.9448415554658869  4.9719972786704414 19.7577777545841222   T   T   T
  7.8382961541177716  4.8945711891097492 16.2586215746833993   F   F   F
 11.1156924815617408  3.2728494478035688 16.9907307207062992   F   F   F
  8.5635528304857029  4.7419355159458787 12.6224119352604465   F   F   F
 11.9935128608502115  0.1540004181785710 15.1814414820040060   F   F   F
 11.6732082319775916  3.1643660431663312 13.3124077194206833   F   F   F
  8.5542349255039998  1.7059548840669454 14.4773831578308361   F   F   F
  9.4226684159247220  1.6899994817646613 10.9233255785987584   F   F   F
 12.7000647433686922  0.0682777404584807 11.6554347246216619   F   F   F
  7.8991892260863521  6.0194327074899654 18.0750328660130677   F   F   F
 11.1469198617648768  4.3879628428027591 18.8546857973958453   T   T   T
  9.4835614878933061  2.8148610001448744 12.7397368699284304   F   F   F
  6.3732099608286381  1.1888212586916347 14.0079564246726598   F   F   F
  7.5293318198103520  9.6126306300884306 19.4053151909616979   T   T   T
 11.0973220550036640  7.6279405770951936 17.0664300508601521   T   T   T
 10.9435142957194920 10.9313800317067571 14.9460517647397939   F   F   F
  7.8361033035508019  9.2481690646171923 16.2494836477616538   F   F   F
  7.6820258094678540 12.5335457139402742 14.2056259414350610   F   F   F
  5.2852533109982698 10.8335353885435808 11.8648928752179526   F   F   F
  6.1399166117477346  7.7268083243616719 10.1442066780043962   F   F   F
  8.3810543570034195 12.4527407719622811 10.6212441189541131   F   F   F
  6.9791805686787498  7.9465072232909684 17.9577079313450803   F   F   F
  9.5650330360610774  9.8683866339947084 20.2987307474863954   T   T   T
  8.9814406150797428 12.7606102173782823 18.3316561003423111   T   T   T
  5.9696444311231360 11.3751488263084006 19.4839124484684589   T   T   T
  6.7988749457634361 11.3037146037999250 15.9656780419605013   F   F   F
 10.0762712732074053  9.6819928624937450 16.6977871879834012   F   F   F
  7.5241316221313674 11.1510789306360536 12.3294684025375485   F   F   F
 10.9540916524958760  6.5631438328687466 14.8884979492811080   F   F   F
 10.6337870236232561  9.5735094578565061 13.0194641866977854   F   F   F
  7.5148137171496643  8.1150982987571219 14.1844396251079381   F   F   F
  8.3832472075703883  8.0991428964548362 10.6303820458758604   F   F   F
 11.6606435350143567  6.4774211551486562 11.3624911918987639   F   F   F
  6.8597680177320166 12.4285761221801412 17.7820893332901697   F   F   F
 10.0841977521369266 10.8219737601343624 18.5493170849632669   T   T   T
  8.4441402795389706  9.2240044148350506 12.4467933372055324   F   F   F
  5.3337887524743026  7.5979646733818100 13.7150128919497618   F   F   F
  2.0609521309317853  9.8078866133607665 21.3767942004689750   T   T   T
