Cu In Se
 1.0000000000000000
    11.6458921600000043   -0.0000000000000000   -0.0000000000000007
     5.8229460800000021   13.0708099412073455   -1.0059749343232778
    -0.0000000000000000    0.0000000000000038   31.3945677355454151
Cu In Se
8 16 32
Selective dynamics
Cartesian
  2.7195170458191615  1.5983545717850445 11.5646890994731599   F   F   F
  5.6309900858191622  5.9552912188541587 16.4617920772896298   F   F   F
  5.6309900858191630  0.5091204100177645 14.2647343219622158   F   F   F
  5.6309900858191622  4.3214399762032381 12.6632179771368705   F   F   F
  3.1643585835019667  4.6742353813756266 18.7367474165389822   T   T   T
  5.6384251988070409  2.0982640382058571 18.1122987242084328   T   T   T
  4.1213442651748355  4.9985329181894507 14.7688466640566407   F   F   F
  7.1406359064634906  6.2700906314537379 11.6168491879144309   F   F   F
  1.5074517782334798  2.4437826626844976 13.5336051088795699   F   F   F
  3.9315823134048431  3.5733536924852718 10.7335709476968333   F   F   F
  4.2849962311990257  2.9271151788184100 20.2150965540227610   T   T   T
  7.1406359064634888  4.0916223079191791 17.0169396328925444   F   F   F
  1.6046172425988690  0.3415602586747478 19.0071379236881377   T   T   T
  3.9315823134048431  1.3948853689507179 16.1336613926749450   F   F   F
  5.6309900858191622  8.1337595423887166 11.0617016323115216   F   F   F
  8.5424631258191628 12.4906961894578323 15.9588046101279915   F   F   F
  8.5424631258191646  7.0445253806214376 13.7617468548005775   F   F   F
  8.5424631258191628 10.8568449468069108 12.1602305099752321   F   F   F
  6.0765164782219880 11.2099152107441959 18.2328769953607832   T   T   T
  8.5495577610980824  8.6333356235003258 17.6097033659332389   T   T   T
  7.0328173051748362 11.5339378887931225 14.2658591968950024   F   F   F
 10.0521089464634912 12.8054956020574107 11.1138617207527926   F   F   F
  4.4189248182334806  8.9791876332881699 13.0306176417179316   F   F   F
  6.8430553534048446 10.1087586630889454 10.2305834805351950   F   F   F
  7.1958612373491686  9.4628502170692386 19.7121670167550782   T   T   T
 10.0521089464634894 10.6270272785228528 16.5139521657309061   F   F   F
  4.5156095146627733  6.8764556877675833 18.5044522557249955   T   T   T
  6.8430553534048446  7.9302903395543911 15.6306739255133067   F   F   F
  8.5424631258191646  1.5983545717850445 11.5646890994731599   F   F   F
 11.4539361658191652  5.9552912188541587 16.4617920772896298   F   F   F
 11.4539361658191652  0.5091204100177645 14.2647343219622158   F   F   F
 11.4539361658191652  4.3214399762032381 12.6632179771368705   F   F   F
  8.9887836905671854  4.6730841987959932 18.7364858740352602   T   T   T
 11.4609427253692289  2.0991728252188886 18.1134353095290699   T   T   T
  9.9442903451748386  4.9985329181894507 14.7688466640566407   F   F   F
 12.9635819864634918  6.2700906314537379 11.6168491879144309   F   F   F
  7.3303978582334821  2.4437826626844976 13.5336051088795699   F   F   F
  9.7545283934048452  3.5733536924852718 10.7335709476968333   F   F   F
 10.1087388559138596  2.9277888334240445 20.2167536958609837   T   T   T
 12.9635819864634918  4.0916223079191791 17.0169396328925444   F   F   F
  7.4270351855157060  0.3413193434017226 19.0071509203383222   T   T   T
  9.7545283934048452  1.3948853689507179 16.1336613926749450   F   F   F
 11.4539361658191652  8.1337595423887166 11.0617016323115216   F   F   F
 14.3654092058191658 12.4906961894578323 15.9588046101279915   F   F   F
 14.3654092058191658  7.0445253806214376 13.7617468548005775   F   F   F
 14.3654092058191658 10.8568449468069108 12.1602305099752321   F   F   F
 11.9008452435466339 11.2086833818505447 18.2326542044035875   T   T   T
 14.3721585840890533  8.6342278705736781 17.6107238880010861   T   T   T
 12.8557633851748392 11.5339378887931225 14.2658591968950006   F   F   F
 15.8750550264634942 12.8054956020574107 11.1138617207527908   F   F   F
 10.2418708982334827  8.9791876332881699 13.0306176417179316   F   F   F
 12.6660014334048476 10.1087586630889454 10.2305834805351950   F   F   F
 13.0197846072121024  9.4635021141750926 19.7137824553653935   T   T   T
 15.8750550264634924 10.6270272785228528 16.5139521657309061   F   F   F
 10.3380799556656164  6.8763266141439718 18.5044909222301293   T   T   T
 12.6660014334048476  7.9302903395543911 15.6306739255133067   F   F   F
