In Cu Se H O                            
   1.00000000000000     
     8.4502271495309422    0.0000000000000000    0.0000000000000005
    -0.0000000000000008   13.7747342905269683   -4.7927822649817520
     0.0000000000000000    0.0000000000000000   36.4618007829892363
   In   Cu   Se   H    O 
    16    16    32     1     1
Selective dynamics
Direct
  0.2500000000000000  0.0000000000000000  0.3382599231601873   F   F   F
  0.2500000000000000  0.2500000000000000  0.4382599231601887   F   F   F
  0.0000000000000000  0.0000000000000000  0.4382599231601887   F   F   F
  0.0000000000000000  0.2500000000000000  0.3382599231601873   F   F   F
  0.2500000000000000  0.4452910600000024  0.4601434991601892   F   F   F
  0.2500000000000000  0.1952910600000024  0.3601434991601877   F   F   F
  0.0000000000000000  0.4297089399999976  0.3663763471601840   F   F   F
  0.0000000000000000  0.1797089399999976  0.4663763471601854   F   F   F
  0.2500000000000000  0.0000000000000000  0.5382599231601830   F   F   F
  0.2517484926124141  0.2591565391620918  0.6406457322859822   T   T   T
  0.0099856377746335  0.0078044344201942  0.6395114864726068   T   T   T
  0.0000000000000000  0.2500000000000000  0.5382599231601830   F   F   F
  0.2521656071133052  0.4505832225529005  0.6618294800312157   T   T   T
  0.2500000000000000  0.1952910600000024  0.5601434991601835   F   F   F
  0.0000000000000000  0.4297089399999976  0.5663763471601868   F   F   F
  0.0006941997769587  0.1868553499521326  0.6662678791874797   T   T   T
  0.2500000000000000  0.5000000000000000  0.3382599231601873   F   F   F
  0.2500000000000000  0.7500000000000000  0.4382599231601887   F   F   F
  0.0000000000000000  0.5000000000000000  0.4382599231601887   F   F   F
  0.0000000000000000  0.7500000000000000  0.3382599231601873   F   F   F
  0.2500000000000000  0.9452910600000024  0.4601434991601892   F   F   F
  0.2500000000000000  0.6952910600000024  0.3601434991601877   F   F   F
  0.0000000000000000  0.9297089399999976  0.3663763471601840   F   F   F
  0.0000000000000000  0.6797089399999976  0.4663763471601854   F   F   F
  0.2500000000000000  0.5000000000000000  0.5382599231601830   F   F   F
  0.2492439463518323  0.7592163469461184  0.6401575244666944   T   T   T
  0.0036637675613846  0.5009071856626832  0.6402265244967751   T   T   T
  0.0000000000000000  0.7500000000000000  0.5382599231601830   F   F   F
  0.2475938176269850  0.9505062101943764  0.6628097069002550   T   T   T
  0.2500000000000000  0.6952910600000024  0.5601434991601835   F   F   F
  0.0000000000000000  0.9297089399999976  0.5663763471601868   F   F   F
  0.0024291858583680  0.6839907902093714  0.6664907300464336   T   T   T
  0.7500000000000000  0.0000000000000000  0.3382599231601873   F   F   F
  0.7500000000000000  0.2500000000000000  0.4382599231601887   F   F   F
  0.5000000000000000  0.0000000000000000  0.4382599231601887   F   F   F
  0.5000000000000000  0.2500000000000000  0.3382599231601873   F   F   F
  0.7500000000000000  0.4452910600000024  0.4601434991601892   F   F   F
  0.7500000000000000  0.1952910600000024  0.3601434991601877   F   F   F
  0.5000000000000000  0.4297089399999976  0.3663763471601840   F   F   F
  0.5000000000000000  0.1797089399999976  0.4663763471601854   F   F   F
  0.7500000000000000  0.0000000000000000  0.5382599231601830   F   F   F
  0.7498256684860820  0.2599433630761112  0.6405525513703765   T   T   T
  0.4880670923214083  0.0076326285660215  0.6408328323299557   T   T   T
  0.5000000000000000  0.2500000000000000  0.5382599231601830   F   F   F
  0.7520793685881486  0.4514280603468208  0.6612432475246379   T   T   T
  0.7500000000000000  0.1952910600000024  0.5601434991601835   F   F   F
  0.5000000000000000  0.4297089399999976  0.5663763471601868   F   F   F
  0.5010098204522393  0.1867331159897105  0.6666777148915770   T   T   T
  0.7500000000000000  0.5000000000000000  0.3382599231601873   F   F   F
  0.7500000000000000  0.7500000000000000  0.4382599231601887   F   F   F
  0.5000000000000000  0.5000000000000000  0.4382599231601887   F   F   F
  0.5000000000000000  0.7500000000000000  0.3382599231601873   F   F   F
  0.7500000000000000  0.9452910600000024  0.4601434991601892   F   F   F
  0.7500000000000000  0.6952910600000024  0.3601434991601877   F   F   F
  0.5000000000000000  0.9297089399999976  0.3663763471601840   F   F   F
  0.5000000000000000  0.6797089399999976  0.4663763471601854   F   F   F
  0.7500000000000000  0.5000000000000000  0.5382599231601830   F   F   F
  0.7482079182220289  0.7448114648589694  0.6394750086686756   T   T   T
  0.5012888322220448  0.5003661380436881  0.6400617822909140   T   T   T
  0.5000000000000000  0.7500000000000000  0.5382599231601830   F   F   F
  0.7502675489286688  0.9470972104495914  0.6563777212136017   T   T   T
  0.7500000000000000  0.6952910600000024  0.5601434991601835   F   F   F
  0.5000000000000000  0.9297089399999976  0.5663763471601868   F   F   F
  0.4953296024802967  0.6830164227595859  0.6663763864549210   T   T   T
  0.8585542447309962  0.9878618533294912  0.7180819371300444   T   T   T
  0.7469541754625411  0.9824599898899535  0.7102195991420359   T   T   T
 
  0.00000000E+00  0.00000000E+00  0.00000000E+00
  0.00000000E+00  0.00000000E+00  0.00000000E+00
  0.00000000E+00  0.00000000E+00  0.00000000E+00
  0.00000000E+00  0.00000000E+00  0.00000000E+00
  0.00000000E+00  0.00000000E+00  0.00000000E+00
  0.00000000E+00  0.00000000E+00  0.00000000E+00
  0.00000000E+00  0.00000000E+00  0.00000000E+00
  0.00000000E+00  0.00000000E+00  0.00000000E+00
  0.00000000E+00  0.00000000E+00  0.00000000E+00
  0.00000000E+00  0.00000000E+00  0.00000000E+00
  0.00000000E+00  0.00000000E+00  0.00000000E+00
  0.00000000E+00  0.00000000E+00  0.00000000E+00
  0.00000000E+00  0.00000000E+00  0.00000000E+00
  0.00000000E+00  0.00000000E+00  0.00000000E+00
  0.00000000E+00  0.00000000E+00  0.00000000E+00
  0.00000000E+00  0.00000000E+00  0.00000000E+00
  0.00000000E+00  0.00000000E+00  0.00000000E+00
  0.00000000E+00  0.00000000E+00  0.00000000E+00
  0.00000000E+00  0.00000000E+00  0.00000000E+00
  0.00000000E+00  0.00000000E+00  0.00000000E+00
  0.00000000E+00  0.00000000E+00  0.00000000E+00
  0.00000000E+00  0.00000000E+00  0.00000000E+00
  0.00000000E+00  0.00000000E+00  0.00000000E+00
  0.00000000E+00  0.00000000E+00  0.00000000E+00
  0.00000000E+00  0.00000000E+00  0.00000000E+00
  0.00000000E+00  0.00000000E+00  0.00000000E+00
  0.00000000E+00  0.00000000E+00  0.00000000E+00
  0.00000000E+00  0.00000000E+00  0.00000000E+00
  0.00000000E+00  0.00000000E+00  0.00000000E+00
  0.00000000E+00  0.00000000E+00  0.00000000E+00
  0.00000000E+00  0.00000000E+00  0.00000000E+00
  0.00000000E+00  0.00000000E+00  0.00000000E+00
  0.00000000E+00  0.00000000E+00  0.00000000E+00
  0.00000000E+00  0.00000000E+00  0.00000000E+00
  0.00000000E+00  0.00000000E+00  0.00000000E+00
  0.00000000E+00  0.00000000E+00  0.00000000E+00
  0.00000000E+00  0.00000000E+00  0.00000000E+00
  0.00000000E+00  0.00000000E+00  0.00000000E+00
  0.00000000E+00  0.00000000E+00  0.00000000E+00
  0.00000000E+00  0.00000000E+00  0.00000000E+00
  0.00000000E+00  0.00000000E+00  0.00000000E+00
  0.00000000E+00  0.00000000E+00  0.00000000E+00
  0.00000000E+00  0.00000000E+00  0.00000000E+00
  0.00000000E+00  0.00000000E+00  0.00000000E+00
  0.00000000E+00  0.00000000E+00  0.00000000E+00
  0.00000000E+00  0.00000000E+00  0.00000000E+00
  0.00000000E+00  0.00000000E+00  0.00000000E+00
  0.00000000E+00  0.00000000E+00  0.00000000E+00
  0.00000000E+00  0.00000000E+00  0.00000000E+00
  0.00000000E+00  0.00000000E+00  0.00000000E+00
  0.00000000E+00  0.00000000E+00  0.00000000E+00
  0.00000000E+00  0.00000000E+00  0.00000000E+00
  0.00000000E+00  0.00000000E+00  0.00000000E+00
  0.00000000E+00  0.00000000E+00  0.00000000E+00
  0.00000000E+00  0.00000000E+00  0.00000000E+00
  0.00000000E+00  0.00000000E+00  0.00000000E+00
  0.00000000E+00  0.00000000E+00  0.00000000E+00
  0.00000000E+00  0.00000000E+00  0.00000000E+00
  0.00000000E+00  0.00000000E+00  0.00000000E+00
  0.00000000E+00  0.00000000E+00  0.00000000E+00
  0.00000000E+00  0.00000000E+00  0.00000000E+00
  0.00000000E+00  0.00000000E+00  0.00000000E+00
  0.00000000E+00  0.00000000E+00  0.00000000E+00
  0.00000000E+00  0.00000000E+00  0.00000000E+00
  0.00000000E+00  0.00000000E+00  0.00000000E+00
  0.00000000E+00  0.00000000E+00  0.00000000E+00
