Te H O                                  
   1.00000000000000     
     9.6768936560985743    0.0000000000000000    0.0000000000000006
    -0.0000000000000006    9.3519449600000009    0.0000000000000006
     0.0000000000000000    0.0000000000000000   31.2754595884879443
   Te   H    O 
    24     1     1
Selective dynamics
Direct
  0.1666666666666643  0.7500000000000000  0.4963045828571424   F   F   F
  0.1666666666666643  0.2500000000000000  0.3608382742857117   F   F   F
  0.1666666666666643  0.0000000000000000  0.4285714285714306   F   F   F
  0.1666666666666643  0.5000000000000000  0.4285714285714306   F   F   F
  0.1895157633241595  0.7476370164668609  0.6375691122612750   T   T   T
  0.1495764181223862  0.2454754394866185  0.5131107175664198   T   T   T
  0.1817890860651445  0.9976077470450235  0.5773876175437778   T   T   T
  0.1699083481079668  0.5014603800094193  0.5789170385052103   T   T   T
  0.5000000000000000  0.7500000000000000  0.4963045828571424   F   F   F
  0.5000000000000000  0.2500000000000000  0.3608382742857117   F   F   F
  0.5000000000000000  0.0000000000000000  0.4285714285714306   F   F   F
  0.5000000000000000  0.5000000000000000  0.4285714285714306   F   F   F
  0.5043420612439391  0.7520804836574086  0.6468486862929339   T   T   T
  0.5002642974098919  0.2726712479951416  0.5078009822717320   T   T   T
  0.4993307477076030  0.0023275261094540  0.5710144429897781   T   T   T
  0.4994304987356912  0.4836804639031556  0.5750843354860322   T   T   T
  0.8333333333333357  0.7500000000000000  0.4963045828571424   F   F   F
  0.8333333333333357  0.2500000000000000  0.3608382742857117   F   F   F
  0.8333333333333357  0.0000000000000000  0.4285714285714306   F   F   F
  0.8333333333333357  0.5000000000000000  0.4285714285714306   F   F   F
  0.8187818788451366  0.7508391572196587  0.6374385416234816   T   T   T
  0.8478704618644599  0.2487517652526918  0.5125446631810533   T   T   T
  0.8181685177259652  0.9956260431670003  0.5776315595616595   T   T   T
  0.8332136621959734  0.5024486063291391  0.5780180255110920   T   T   T
  0.5038136860722204  0.6561342066145173  0.7216831463022331   T   T   T
  0.5089843036787371  0.6025650742106521  0.6948283146386771   T   T   T
 
  0.00000000E+00  0.00000000E+00  0.00000000E+00
  0.00000000E+00  0.00000000E+00  0.00000000E+00
  0.00000000E+00  0.00000000E+00  0.00000000E+00
  0.00000000E+00  0.00000000E+00  0.00000000E+00
  0.00000000E+00  0.00000000E+00  0.00000000E+00
  0.00000000E+00  0.00000000E+00  0.00000000E+00
  0.00000000E+00  0.00000000E+00  0.00000000E+00
  0.00000000E+00  0.00000000E+00  0.00000000E+00
  0.00000000E+00  0.00000000E+00  0.00000000E+00
  0.00000000E+00  0.00000000E+00  0.00000000E+00
  0.00000000E+00  0.00000000E+00  0.00000000E+00
  0.00000000E+00  0.00000000E+00  0.00000000E+00
  0.00000000E+00  0.00000000E+00  0.00000000E+00
  0.00000000E+00  0.00000000E+00  0.00000000E+00
  0.00000000E+00  0.00000000E+00  0.00000000E+00
  0.00000000E+00  0.00000000E+00  0.00000000E+00
  0.00000000E+00  0.00000000E+00  0.00000000E+00
  0.00000000E+00  0.00000000E+00  0.00000000E+00
  0.00000000E+00  0.00000000E+00  0.00000000E+00
  0.00000000E+00  0.00000000E+00  0.00000000E+00
  0.00000000E+00  0.00000000E+00  0.00000000E+00
  0.00000000E+00  0.00000000E+00  0.00000000E+00
  0.00000000E+00  0.00000000E+00  0.00000000E+00
  0.00000000E+00  0.00000000E+00  0.00000000E+00
  0.00000000E+00  0.00000000E+00  0.00000000E+00
  0.00000000E+00  0.00000000E+00  0.00000000E+00
