Te H O
 1.0000000000000000
     9.6768936560985743    0.0000000000000000    0.0000000000000006
    -0.0000000000000006    9.3519449600000009    0.0000000000000006
     0.0000000000000000    0.0000000000000000   31.2754595884879443
Te H O
24 1 1
Selective dynamics
Cartesian
  1.6128156093497619  7.0139587200000006 15.5221539247299383   F   F   F
  1.6128156093497621  2.3379862400000007 11.2853828654025854   F   F   F
  1.6128156093497623  0.0000000000000000 13.4037683950662636   F   F   F
  1.6128156093497621  4.6759724800000004 13.4037683950662636   F   F   F
  1.8339238878422275  6.9918602280566757 19.9402670053957145   T   T   T
  1.4474350916304486  2.2956727991106987 16.0477735116687157   T   T   T
  1.7591536536917360 -0.0223722179653123 18.0580630993836877   T   T   T
  1.6441850159241751  4.6896298734687480 18.1058964428567180   T   T   T
  4.8384468280492863  7.0139587200000006 15.5221539247299383   F   F   F
  4.8384468280492872  2.3379862400000007 11.2853828654025854   F   F   F
  4.8384468280492872  0.0000000000000000 13.4037683950662636   F   F   F
  4.8384468280492872  4.6759724800000004 13.4037683950662636   F   F   F
  4.8804644929551566  7.0334152886542780 20.2304899480211198   T   T   T
  4.8410044059783974  2.5500065034250752 15.8817091000341364   T   T   T
  4.8319705447866870  0.0217668960685842 17.8587391361698593   T   T   T
  4.8329358248775822  4.5233530766496006 17.9860268944658657   T   T   T
  8.0640780467488113  7.0139587200000006 15.5221539247299383   F   F   F
  8.0640780467488113  2.3379862400000007 11.2853828654025854   F   F   F
  8.0640780467488113  0.0000000000000000 13.4037683950662636   F   F   F
  8.0640780467488113  4.6759724800000004 13.4037683950662636   F   F   F
  7.9232651691249814  7.0218064721310567 19.9361833486897986   T   T   T
  8.2047522936095376  2.3263128173460159 16.0300699006142580   T   T   T
  7.9173297388019748 -0.0409050035596010 18.0656924981058893   T   T   T
  8.0629200018788580  4.6988717116187946 18.0777793982898203   T   T   T
  4.8753514626078847  6.1361309866322058 22.5709720778683156   T   T   T
  4.9253869793225320  5.6351554088363098 21.7310748754192105   T   T   T
