Cd In Se                                
   1.00000000000000     
    11.9454120828770254    0.0000000000000000    0.0000000000000007
    -5.9727060414385118   13.6834591530377256   -0.8092229449120690
     0.0000000000000000    0.0000000000000000   32.3117488716703605
   Cd   In   Se
     8    16    32
Selective dynamics
Direct
  0.4379272374322909  0.4060478641185838  0.5897066918974971   T   T   T
  0.0416666666666643  0.0833333333333357  0.4166666666666643   F   F   F
  0.1041666666666643  0.2083333333333357  0.5416666666666643   F   F   F
  0.3258140611592566  0.0966913669744187  0.6117197280577003   T   T   T
  0.1875000000000000  0.3750000000000000  0.3750000000000000   F   F   F
  0.3958333333333357  0.2916666666666643  0.4583333333333357   F   F   F
  0.2948303416666676  0.3647107883333334  0.5179321366666656   F   F   F
  0.1458396133601667  0.0511222127053657  0.5575649393895645   T   T   T
  0.0160503094140836  0.2644809011001215  0.6108063782687267   T   T   T
  0.3454891187284801  0.4674615469244046  0.6541261200711119   T   T   T
  0.3781636750000033  0.0313774549999977  0.3512654700000013   F   F   F
  0.2510113425000000  0.2269725800000018  0.3903844949999993   F   F   F
  0.1073720958333340  0.4396940866666696  0.4429488383333364   F   F   F
  0.4301195533333342  0.1352892116666666  0.4820678633333344   F   F   F
  0.4379543381927533  0.9060720882128237  0.5897035113674605   T   T   T
  0.0416666666666643  0.5833333333333357  0.4166666666666643   F   F   F
  0.1041666666666643  0.7083333333333357  0.5416666666666643   F   F   F
  0.3257961790244437  0.5966979133830890  0.6116735225916088   T   T   T
  0.1875000000000000  0.8750000000000000  0.3750000000000000   F   F   F
  0.3958333333333357  0.7916666666666643  0.4583333333333357   F   F   F
  0.2948303416666676  0.8647107883333334  0.5179321366666656   F   F   F
  0.1457545317863236  0.5510871853693047  0.5575115054370059   T   T   T
  0.0160283344933987  0.7644585585809978  0.6108144861801890   T   T   T
  0.3457433818272406  0.9675853429779480  0.6541620243574116   T   T   T
  0.3781636750000033  0.5313774549999977  0.3512654700000013   F   F   F
  0.2510113425000000  0.7269725800000018  0.3903844949999993   F   F   F
  0.1073720958333340  0.9396940866666696  0.4429488383333364   F   F   F
  0.4301195533333342  0.6352892116666666  0.4820678633333344   F   F   F
  0.9378797639483025  0.4060360508569403  0.5897062907264328   T   T   T
  0.5416666666666643  0.0833333333333357  0.4166666666666643   F   F   F
  0.6041666666666643  0.2083333333333357  0.5416666666666643   F   F   F
  0.8257112943462701  0.0966994353498265  0.6117384973862130   T   T   T
  0.6875000000000000  0.3750000000000000  0.3750000000000000   F   F   F
  0.8958333333333357  0.2916666666666643  0.4583333333333357   F   F   F
  0.7948303416666676  0.3647107883333334  0.5179321366666656   F   F   F
  0.6457588697295122  0.0510429421305858  0.5575646320930048   T   T   T
  0.5162082547718541  0.2645014272421378  0.6108161880764484   T   T   T
  0.8455762157284212  0.4675404925896345  0.6541647526427568   T   T   T
  0.8781636750000033  0.0313774549999977  0.3512654700000013   F   F   F
  0.7510113425000000  0.2269725800000018  0.3903844949999993   F   F   F
  0.6073720958333340  0.4396940866666696  0.4429488383333364   F   F   F
  0.9301195533333342  0.1352892116666666  0.4820678633333344   F   F   F
  0.9378728422977431  0.9060449734945877  0.5897099426396508   T   T   T
  0.5416666666666643  0.5833333333333357  0.4166666666666643   F   F   F
  0.6041666666666643  0.7083333333333357  0.5416666666666643   F   F   F
  0.8256404559585135  0.5966921206326248  0.6116980674439034   T   T   T
  0.6875000000000000  0.8750000000000000  0.3750000000000000   F   F   F
  0.8958333333333357  0.7916666666666643  0.4583333333333357   F   F   F
  0.7948303416666676  0.8647107883333334  0.5179321366666656   F   F   F
  0.6456725067453135  0.5509977647578950  0.5575188007424998   T   T   T
  0.5162029465571649  0.7644959643495426  0.6108174234239812   T   T   T
  0.8457900324350405  0.9676503720170544  0.6542001997675371   T   T   T
  0.8781636750000033  0.5313774549999977  0.3512654700000013   F   F   F
  0.7510113425000000  0.7269725800000018  0.3903844949999993   F   F   F
  0.6073720958333340  0.9396940866666696  0.4429488383333364   F   F   F
  0.9301195533333342  0.6352892116666666  0.4820678633333344   F   F   F
 
  0.00000000E+00  0.00000000E+00  0.00000000E+00
  0.00000000E+00  0.00000000E+00  0.00000000E+00
  0.00000000E+00  0.00000000E+00  0.00000000E+00
  0.00000000E+00  0.00000000E+00  0.00000000E+00
  0.00000000E+00  0.00000000E+00  0.00000000E+00
  0.00000000E+00  0.00000000E+00  0.00000000E+00
  0.00000000E+00  0.00000000E+00  0.00000000E+00
  0.00000000E+00  0.00000000E+00  0.00000000E+00
  0.00000000E+00  0.00000000E+00  0.00000000E+00
  0.00000000E+00  0.00000000E+00  0.00000000E+00
  0.00000000E+00  0.00000000E+00  0.00000000E+00
  0.00000000E+00  0.00000000E+00  0.00000000E+00
  0.00000000E+00  0.00000000E+00  0.00000000E+00
  0.00000000E+00  0.00000000E+00  0.00000000E+00
  0.00000000E+00  0.00000000E+00  0.00000000E+00
  0.00000000E+00  0.00000000E+00  0.00000000E+00
  0.00000000E+00  0.00000000E+00  0.00000000E+00
  0.00000000E+00  0.00000000E+00  0.00000000E+00
  0.00000000E+00  0.00000000E+00  0.00000000E+00
  0.00000000E+00  0.00000000E+00  0.00000000E+00
  0.00000000E+00  0.00000000E+00  0.00000000E+00
  0.00000000E+00  0.00000000E+00  0.00000000E+00
  0.00000000E+00  0.00000000E+00  0.00000000E+00
  0.00000000E+00  0.00000000E+00  0.00000000E+00
  0.00000000E+00  0.00000000E+00  0.00000000E+00
  0.00000000E+00  0.00000000E+00  0.00000000E+00
  0.00000000E+00  0.00000000E+00  0.00000000E+00
  0.00000000E+00  0.00000000E+00  0.00000000E+00
  0.00000000E+00  0.00000000E+00  0.00000000E+00
  0.00000000E+00  0.00000000E+00  0.00000000E+00
  0.00000000E+00  0.00000000E+00  0.00000000E+00
  0.00000000E+00  0.00000000E+00  0.00000000E+00
  0.00000000E+00  0.00000000E+00  0.00000000E+00
  0.00000000E+00  0.00000000E+00  0.00000000E+00
  0.00000000E+00  0.00000000E+00  0.00000000E+00
  0.00000000E+00  0.00000000E+00  0.00000000E+00
  0.00000000E+00  0.00000000E+00  0.00000000E+00
  0.00000000E+00  0.00000000E+00  0.00000000E+00
  0.00000000E+00  0.00000000E+00  0.00000000E+00
  0.00000000E+00  0.00000000E+00  0.00000000E+00
  0.00000000E+00  0.00000000E+00  0.00000000E+00
  0.00000000E+00  0.00000000E+00  0.00000000E+00
  0.00000000E+00  0.00000000E+00  0.00000000E+00
  0.00000000E+00  0.00000000E+00  0.00000000E+00
  0.00000000E+00  0.00000000E+00  0.00000000E+00
  0.00000000E+00  0.00000000E+00  0.00000000E+00
  0.00000000E+00  0.00000000E+00  0.00000000E+00
  0.00000000E+00  0.00000000E+00  0.00000000E+00
  0.00000000E+00  0.00000000E+00  0.00000000E+00
  0.00000000E+00  0.00000000E+00  0.00000000E+00
  0.00000000E+00  0.00000000E+00  0.00000000E+00
  0.00000000E+00  0.00000000E+00  0.00000000E+00
  0.00000000E+00  0.00000000E+00  0.00000000E+00
  0.00000000E+00  0.00000000E+00  0.00000000E+00
  0.00000000E+00  0.00000000E+00  0.00000000E+00
  0.00000000E+00  0.00000000E+00  0.00000000E+00
