Cd In Se
 1.0000000000000000
    11.9454120828770254    0.0000000000000000    0.0000000000000007
    -5.9727060414385118   13.6834591530377256   -0.8092229449120690
     0.0000000000000000    0.0000000000000000   32.3117488716703605
Cd In Se
8 16 32
Selective dynamics
Cartesian
  2.8060167823103295  5.5561393628448785 18.7258712881581495   T   T   T
  0.0000000000000001  1.1402882627531428 13.3957934511199799   F   F   F
  0.0000000000000002  2.8507206568828587 17.3336091919647650   F   F   F
  3.3144741112599192  1.3230723704458474 19.6874893601161709   T   T   T
  0.0000000000000004  5.1312971823891473 11.8134472225343625   F   F   F
  2.9863530207192563  3.9910089196360028 14.5735282072495611   F   F   F
  1.3435595968874599  4.9905051748313536 16.4401607943646866   F   F   F
  1.4367763309176171  0.6995287093667961 17.9745290336877801   T   T   T
 -1.3879391158368857  3.6190136069620835 19.5221982901723159   T   T   T
  1.3349994879061327  6.3964909829559327 20.7576783125024633   T   T   T
  4.3299126176067153  0.4293521238187778 11.3246102973903131   F   F   F
  1.6427934238317976  3.1057700272895858 12.4303343462319660   F   F   F
 -1.3435595968874585  6.0165360747355638 13.9566410835519576   F   F   F
  4.3299126176067171  1.8512244016875017 15.4669766048496431   F   F   F
 -0.1801571920514102 12.3982004087677868 18.3211374445214901   T   T   T
 -2.9863530207192559  7.9820178392720056 12.9911819786639455   F   F   F
 -2.9863530207192559  9.6924502334017220 16.9289977195087289   F   F   F
  0.3278683812968675  8.1648915244803195 19.2813796107393784   T   T   T
 -2.9863530207192555 11.9730267589080093 11.4088357500783282   F   F   F
  0.0000000000000004 10.8327384961548656 14.1689167347935268   F   F   F
 -1.6427934238317961 11.8322347513502173 16.0355493219086505   F   F   F
 -1.5503838162801873  7.5407789907634548 17.5682193616994873   T   T   T
 -4.3744211907402129 10.4604374605331323 19.1178668785944197   T   T   T
 -1.6490556527578568 13.2399145177167537 20.3541267917218427   T   T   T
  1.3435595968874594  7.2710817003376409 10.9199988249342788   F   F   F
 -1.3435595968874583  9.9474996038084491 12.0257228737759316   F   F   F
 -4.3299126176067144 12.8582656512544276 13.5520296110959233   F   F   F
  1.3435595968874612  8.6929539782063650 15.0623651323936087   F   F   F
  8.7782262905588251  5.5559777165616469 18.7258678851818594   T   T   T
  5.9727060414385127  1.1402882627531428 13.3957934511199799   F   F   F
  5.9727060414385127  2.8507206568828587 17.3336091919647650   F   F   F
  9.2859043707343645  1.3231827737312092 19.6880893008310629   T   T   T
  5.9727060414385136  5.1312971823891473 11.8134472225343625   F   F   F
  8.9590590621577686  3.9910089196360028 14.5735282072495611   F   F   F
  7.3162656383259730  4.9905051748313536 16.4401607943646866   F   F   F
  7.4089913162557570  0.6984440136947618 17.9745832519665996   T   T   T
  4.5865310513743793  3.6192944755879339 19.5224986519908335   T   T   T
  7.3082744196484839  6.3975712327413783 20.7588627138121922   T   T   T
 10.3026186590452280  0.4293521238187778 11.3246102973903131   F   F   F
  7.6154994652703101  3.1057700272895858 12.4303343462319660   F   F   F
  4.6291464445510542  6.0165360747355638 13.9566410835519576   F   F   F
 10.3026186590452298  1.8512244016875017 15.4669766048496431   F   F   F
  5.7917372955795230 12.3978293856283361 18.3213671920254022   T   T   T
  2.9863530207192568  7.9820178392720056 12.9911819786639455   F   F   F
  2.9863530207192568  9.6924502334017220 16.9289977195087324   F   F   F
  6.2987488449376627  8.1648122596159940 19.2821773854693994   T   T   T
  2.9863530207192572 11.9730267589080093 11.4088357500783282   F   F   F
  5.9727060414385136 10.8327384961548656 14.1689167347935268   F   F   F
  4.3299126176067162 11.8322347513502173 16.0355493219086540   F   F   F
  4.4218764852683421  7.5395554074797371 17.5685274469891368   T   T   T
  1.6001472500947860 10.4609493008391219 19.1179315164720087   T   T   T
  4.3238192500799446 13.2408043399171600 20.3553076829963899   T   T   T
  7.3162656383259721  7.2710817003376409 10.9199988249342788   F   F   F
  4.6291464445510542  9.9474996038084491 12.0257228737759316   F   F   F
  1.6427934238317983 12.8582656512544276 13.5520296110959233   F   F   F
  7.3162656383259739  8.6929539782063650 15.0623651323936087   F   F   F
