Co Te O                                 
   1.00000000000000     
    11.4398164697169697    0.0000000000000000    0.0000000000000007
    -5.7199082348584840    9.9071716774065131    0.0000000000000007
     0.0000000000000000    0.0000000000000000   33.6134573712687796
   Co   Te   O 
    18    36     1
Selective dynamics
Direct
  0.0000000000000000  0.0000000000000000  0.4166666666666643   F   F   F
  0.1111111111111143  0.2222222222222214  0.3768451783333333   F   F   F
  0.2222222222222214  0.1111111111111143  0.4564881550000024   F   F   F
  0.0048203420372062  0.0135436480127566  0.5832480568745879   T   T   T
  0.1111111111111143  0.2222222222222214  0.5435118449999976   F   F   F
  0.2281536727560862  0.1194122929979784  0.6232119450675029   T   T   T
  0.0000000000000000  0.3333333333333357  0.4166666666666643   F   F   F
  0.1111111111111143  0.5555555555555571  0.3768451783333333   F   F   F
  0.2222222222222214  0.4444444444444429  0.4564881550000024   F   F   F
  0.0009065484720665  0.3360635849372855  0.5820910104294938   T   T   T
  0.1111111111111143  0.5555555555555571  0.5435118449999976   F   F   F
  0.2228604681158757  0.4460638708312530  0.6228731935269067   T   T   T
  0.0000000000000000  0.6666666666666643  0.4166666666666643   F   F   F
  0.1111111111111143  0.8888888888888857  0.3768451783333333   F   F   F
  0.2222222222222214  0.7777777777777786  0.4564881550000024   F   F   F
  0.9959465743949849  0.6617410047048082  0.5831208347660350   T   T   T
  0.1111111111111143  0.8888888888888857  0.5435118449999976   F   F   F
  0.2199840214572788  0.7784468635168267  0.6228282584131577   T   T   T
  0.3333333333333357  0.0000000000000000  0.4166666666666643   F   F   F
  0.4444444444444429  0.2222222222222214  0.3768451783333333   F   F   F
  0.5555555555555571  0.1111111111111143  0.4564881550000024   F   F   F
  0.3324904871684708  0.0012924663181764  0.5831117580478846   T   T   T
  0.4444444444444429  0.2222222222222214  0.5435118449999976   F   F   F
  0.5539448249639634  0.1090192132916243  0.6237026018542124   T   T   T
  0.3333333333333357  0.3333333333333357  0.4166666666666643   F   F   F
  0.4444444444444429  0.5555555555555571  0.3768451783333333   F   F   F
  0.5555555555555571  0.4444444444444429  0.4564881550000024   F   F   F
  0.3343061120046897  0.3353702698353871  0.5821488021392582   T   T   T
  0.4444444444444429  0.5555555555555571  0.5435118449999976   F   F   F
  0.5501906133468850  0.4372464261376692  0.6237100288315389   T   T   T
  0.3333333333333357  0.6666666666666643  0.4166666666666643   F   F   F
  0.4444444444444429  0.8888888888888857  0.3768451783333333   F   F   F
  0.5555555555555571  0.7777777777777786  0.4564881550000024   F   F   F
  0.3338693619520043  0.6680390223804409  0.5834117572458837   T   T   T
  0.4444444444444429  0.8888888888888857  0.5435118449999976   F   F   F
  0.5585728923253939  0.7787950188390411  0.6225255598373636   T   T   T
  0.6666666666666643  0.0000000000000000  0.4166666666666643   F   F   F
  0.7777777777777786  0.2222222222222214  0.3768451783333333   F   F   F
  0.8888888888888857  0.1111111111111143  0.4564881550000024   F   F   F
  0.6690654202699235  0.0020160973791761  0.5831504505262970   T   T   T
  0.7777777777777786  0.2222222222222214  0.5435118449999976   F   F   F
  0.8893229366637740  0.1214667459832910  0.6239310994412861   T   T   T
  0.6666666666666643  0.3333333333333357  0.4166666666666643   F   F   F
  0.7777777777777786  0.5555555555555571  0.3768451783333333   F   F   F
  0.8888888888888857  0.4444444444444429  0.4564881550000024   F   F   F
  0.6654470061069873  0.3310996466711345  0.5829019624480480   T   T   T
  0.7777777777777786  0.5555555555555571  0.5435118449999976   F   F   F
  0.8868232067538742  0.4385571217730657  0.6237331070022094   T   T   T
  0.6666666666666643  0.6666666666666643  0.4166666666666643   F   F   F
  0.7777777777777786  0.8888888888888857  0.3768451783333333   F   F   F
  0.8888888888888857  0.7777777777777786  0.4564881550000024   F   F   F
  0.6651118575994701  0.6607832252234260  0.5832462520662887   T   T   T
  0.7777777777777786  0.8888888888888857  0.5435118449999976   F   F   F
  0.8600076057703490  0.7200151206124232  0.6313301734642423   T   T   T
  0.9576497317190160  0.9165511423001576  0.6337191643407891   T   T   T
 
  0.00000000E+00  0.00000000E+00  0.00000000E+00
  0.00000000E+00  0.00000000E+00  0.00000000E+00
  0.00000000E+00  0.00000000E+00  0.00000000E+00
  0.00000000E+00  0.00000000E+00  0.00000000E+00
  0.00000000E+00  0.00000000E+00  0.00000000E+00
  0.00000000E+00  0.00000000E+00  0.00000000E+00
  0.00000000E+00  0.00000000E+00  0.00000000E+00
  0.00000000E+00  0.00000000E+00  0.00000000E+00
  0.00000000E+00  0.00000000E+00  0.00000000E+00
  0.00000000E+00  0.00000000E+00  0.00000000E+00
  0.00000000E+00  0.00000000E+00  0.00000000E+00
  0.00000000E+00  0.00000000E+00  0.00000000E+00
  0.00000000E+00  0.00000000E+00  0.00000000E+00
  0.00000000E+00  0.00000000E+00  0.00000000E+00
  0.00000000E+00  0.00000000E+00  0.00000000E+00
  0.00000000E+00  0.00000000E+00  0.00000000E+00
  0.00000000E+00  0.00000000E+00  0.00000000E+00
  0.00000000E+00  0.00000000E+00  0.00000000E+00
  0.00000000E+00  0.00000000E+00  0.00000000E+00
  0.00000000E+00  0.00000000E+00  0.00000000E+00
  0.00000000E+00  0.00000000E+00  0.00000000E+00
  0.00000000E+00  0.00000000E+00  0.00000000E+00
  0.00000000E+00  0.00000000E+00  0.00000000E+00
  0.00000000E+00  0.00000000E+00  0.00000000E+00
  0.00000000E+00  0.00000000E+00  0.00000000E+00
  0.00000000E+00  0.00000000E+00  0.00000000E+00
  0.00000000E+00  0.00000000E+00  0.00000000E+00
  0.00000000E+00  0.00000000E+00  0.00000000E+00
  0.00000000E+00  0.00000000E+00  0.00000000E+00
  0.00000000E+00  0.00000000E+00  0.00000000E+00
  0.00000000E+00  0.00000000E+00  0.00000000E+00
  0.00000000E+00  0.00000000E+00  0.00000000E+00
  0.00000000E+00  0.00000000E+00  0.00000000E+00
  0.00000000E+00  0.00000000E+00  0.00000000E+00
  0.00000000E+00  0.00000000E+00  0.00000000E+00
  0.00000000E+00  0.00000000E+00  0.00000000E+00
  0.00000000E+00  0.00000000E+00  0.00000000E+00
  0.00000000E+00  0.00000000E+00  0.00000000E+00
  0.00000000E+00  0.00000000E+00  0.00000000E+00
  0.00000000E+00  0.00000000E+00  0.00000000E+00
  0.00000000E+00  0.00000000E+00  0.00000000E+00
  0.00000000E+00  0.00000000E+00  0.00000000E+00
  0.00000000E+00  0.00000000E+00  0.00000000E+00
  0.00000000E+00  0.00000000E+00  0.00000000E+00
  0.00000000E+00  0.00000000E+00  0.00000000E+00
  0.00000000E+00  0.00000000E+00  0.00000000E+00
  0.00000000E+00  0.00000000E+00  0.00000000E+00
  0.00000000E+00  0.00000000E+00  0.00000000E+00
  0.00000000E+00  0.00000000E+00  0.00000000E+00
  0.00000000E+00  0.00000000E+00  0.00000000E+00
  0.00000000E+00  0.00000000E+00  0.00000000E+00
  0.00000000E+00  0.00000000E+00  0.00000000E+00
  0.00000000E+00  0.00000000E+00  0.00000000E+00
  0.00000000E+00  0.00000000E+00  0.00000000E+00
  0.00000000E+00  0.00000000E+00  0.00000000E+00
