Ni Te H O                               
   1.00000000000000     
    12.9312780400000005    0.0000000000000000    0.0000000000000008
    -0.0000000000000008   12.9312780400000005    0.0000000000000008
     0.0000000000000000    0.0000000000000000   38.7938341199999996
   Ni   Te   H    O 
    32    64     1     1
Selective dynamics
Direct
  0.2500000000000000  0.0000000000000000  0.3750000000000000   F   F   F
  0.0000000000000000  0.2500000000000000  0.3750000000000000   F   F   F
  0.2500000000000000  0.2500000000000000  0.4583333333333357   F   F   F
  0.0000000000000000  0.0000000000000000  0.4583333333333357   F   F   F
  0.0687851349999988  0.3187851349999988  0.4812617116666686   F   F   F
  0.3187851349999988  0.4312148650000012  0.4354049550000028   F   F   F
  0.4312148650000012  0.0687851349999988  0.3520716216666671   F   F   F
  0.1812148650000012  0.1812148650000012  0.3979283783333329   F   F   F
  0.4312148650000012  0.1812148650000012  0.4354049550000028   F   F   F
  0.1812148650000012  0.0687851349999988  0.4812617116666686   F   F   F
  0.0687851349999988  0.4312148650000012  0.3979283783333329   F   F   F
  0.3187851349999988  0.3187851349999988  0.3520716216666671   F   F   F
  0.2500000000000000  0.0000000000000000  0.5416666666666643   F   F   F
  0.0000000000000000  0.2500000000000000  0.5416666666666643   F   F   F
  0.2434242751945135  0.2543377246589813  0.6226529714423492   T   T   T
  0.0057313099443306  0.0035822758956314  0.6227006924057790   T   T   T
  0.0717452830824499  0.3278389142303055  0.6487593809469203   T   T   T
  0.3163907993894526  0.4423641542546406  0.6093412911585503   T   T   T
  0.4312148650000012  0.0687851349999988  0.5187382883333314   F   F   F
  0.1812148650000012  0.1812148650000012  0.5645950449999972   F   F   F
  0.4326197192348147  0.1935604561937723  0.6093438231611756   T   T   T
  0.1766736542035261  0.0791702948103392  0.6487322408637795   T   T   T
  0.0687851349999988  0.4312148650000012  0.5645950449999972   F   F   F
  0.3187851349999988  0.3187851349999988  0.5187382883333314   F   F   F
  0.2500000000000000  0.5000000000000000  0.3750000000000000   F   F   F
  0.0000000000000000  0.7500000000000000  0.3750000000000000   F   F   F
  0.2500000000000000  0.7500000000000000  0.4583333333333357   F   F   F
  0.0000000000000000  0.5000000000000000  0.4583333333333357   F   F   F
  0.0687851349999988  0.8187851349999988  0.4812617116666686   F   F   F
  0.3187851349999988  0.9312148650000012  0.4354049550000028   F   F   F
  0.4312148650000012  0.5687851349999988  0.3520716216666671   F   F   F
  0.1812148650000012  0.6812148650000012  0.3979283783333329   F   F   F
  0.4312148650000012  0.6812148650000012  0.4354049550000028   F   F   F
  0.1812148650000012  0.5687851349999988  0.4812617116666686   F   F   F
  0.0687851349999988  0.9312148650000012  0.3979283783333329   F   F   F
  0.3187851349999988  0.8187851349999988  0.3520716216666671   F   F   F
  0.2500000000000000  0.5000000000000000  0.5416666666666643   F   F   F
  0.0000000000000000  0.7500000000000000  0.5416666666666643   F   F   F
  0.2422163858215427  0.7545214335785886  0.6226470975022735   T   T   T
  0.0064473274736940  0.5041324282601209  0.6225172718113114   T   T   T
  0.0709294089735621  0.8282191522801696  0.6491214096190348   T   T   T
  0.3154178006767694  0.9415625850251956  0.6093126821035995   T   T   T
  0.4312148650000012  0.5687851349999988  0.5187382883333314   F   F   F
  0.1812148650000012  0.6812148650000012  0.5645950449999972   F   F   F
  0.4331422895905845  0.6934977775731923  0.6094316402809099   T   T   T
  0.1763716801108899  0.5783014758889280  0.6488298279603626   T   T   T
  0.0687851349999988  0.9312148650000012  0.5645950449999972   F   F   F
  0.3187851349999988  0.8187851349999988  0.5187382883333314   F   F   F
  0.7500000000000000  0.0000000000000000  0.3750000000000000   F   F   F
  0.5000000000000000  0.2500000000000000  0.3750000000000000   F   F   F
  0.7500000000000000  0.2500000000000000  0.4583333333333357   F   F   F
  0.5000000000000000  0.0000000000000000  0.4583333333333357   F   F   F
  0.5687851349999988  0.3187851349999988  0.4812617116666686   F   F   F
  0.8187851349999988  0.4312148650000012  0.4354049550000028   F   F   F
  0.9312148650000012  0.0687851349999988  0.3520716216666671   F   F   F
  0.6812148650000012  0.1812148650000012  0.3979283783333329   F   F   F
  0.9312148650000012  0.1812148650000012  0.4354049550000028   F   F   F
  0.6812148650000012  0.0687851349999988  0.4812617116666686   F   F   F
  0.5687851349999988  0.4312148650000012  0.3979283783333329   F   F   F
  0.8187851349999988  0.3187851349999988  0.3520716216666671   F   F   F
  0.7500000000000000  0.0000000000000000  0.5416666666666643   F   F   F
  0.5000000000000000  0.2500000000000000  0.5416666666666643   F   F   F
  0.7447529518583025  0.2547759529036995  0.6219461805817872   T   T   T
  0.5046285006549169  0.0068464553347312  0.6221153045499932   T   T   T
  0.5766552795773450  0.3326486137257376  0.6483789701613887   T   T   T
  0.8174605987678447  0.4422154049860936  0.6069671687028944   T   T   T
  0.9312148650000012  0.0687851349999988  0.5187382883333314   F   F   F
  0.6812148650000012  0.1812148650000012  0.5645950449999972   F   F   F
  0.9331995732940257  0.1901634110220272  0.6089715702412732   T   T   T
  0.6746476586185182  0.0809722874472030  0.6487091256885691   T   T   T
  0.5687851349999988  0.4312148650000012  0.5645950449999972   F   F   F
  0.8187851349999988  0.3187851349999988  0.5187382883333314   F   F   F
  0.7500000000000000  0.5000000000000000  0.3750000000000000   F   F   F
  0.5000000000000000  0.7500000000000000  0.3750000000000000   F   F   F
  0.7500000000000000  0.7500000000000000  0.4583333333333357   F   F   F
  0.5000000000000000  0.5000000000000000  0.4583333333333357   F   F   F
  0.5687851349999988  0.8187851349999988  0.4812617116666686   F   F   F
  0.8187851349999988  0.9312148650000012  0.4354049550000028   F   F   F
  0.9312148650000012  0.5687851349999988  0.3520716216666671   F   F   F
  0.6812148650000012  0.6812148650000012  0.3979283783333329   F   F   F
  0.9312148650000012  0.6812148650000012  0.4354049550000028   F   F   F
  0.6812148650000012  0.5687851349999988  0.4812617116666686   F   F   F
  0.5687851349999988  0.9312148650000012  0.3979283783333329   F   F   F
  0.8187851349999988  0.8187851349999988  0.3520716216666671   F   F   F
  0.7500000000000000  0.5000000000000000  0.5416666666666643   F   F   F
  0.5000000000000000  0.7500000000000000  0.5416666666666643   F   F   F
  0.7383720810055934  0.7539398126621890  0.6236613411143352   T   T   T
  0.5053501692758005  0.5065429076621584  0.6225663134142394   T   T   T
  0.5712933915921212  0.8367458468002908  0.6485357852220446   T   T   T
  0.8157015050984029  0.9408112447482679  0.6098340046932762   T   T   T
  0.9312148650000012  0.5687851349999988  0.5187382883333314   F   F   F
  0.6812148650000012  0.6812148650000012  0.5645950449999972   F   F   F
  0.9294575228366284  0.6895822406055743  0.6104902938678833   T   T   T
  0.6679675049379270  0.5826133802779268  0.6554562815074689   T   T   T
  0.5687851349999988  0.9312148650000012  0.5645950449999972   F   F   F
  0.8187851349999988  0.8187851349999988  0.5187382883333314   F   F   F
  0.6162456037067656  0.6665755359431031  0.7127884053227049   T   T   T
  0.5717018219958305  0.6364502013136288  0.6950023128335374   T   T   T
 
  0.00000000E+00  0.00000000E+00  0.00000000E+00
  0.00000000E+00  0.00000000E+00  0.00000000E+00
  0.00000000E+00  0.00000000E+00  0.00000000E+00
  0.00000000E+00  0.00000000E+00  0.00000000E+00
  0.00000000E+00  0.00000000E+00  0.00000000E+00
  0.00000000E+00  0.00000000E+00  0.00000000E+00
  0.00000000E+00  0.00000000E+00  0.00000000E+00
  0.00000000E+00  0.00000000E+00  0.00000000E+00
  0.00000000E+00  0.00000000E+00  0.00000000E+00
  0.00000000E+00  0.00000000E+00  0.00000000E+00
  0.00000000E+00  0.00000000E+00  0.00000000E+00
  0.00000000E+00  0.00000000E+00  0.00000000E+00
  0.00000000E+00  0.00000000E+00  0.00000000E+00
  0.00000000E+00  0.00000000E+00  0.00000000E+00
  0.00000000E+00  0.00000000E+00  0.00000000E+00
  0.00000000E+00  0.00000000E+00  0.00000000E+00
  0.00000000E+00  0.00000000E+00  0.00000000E+00
  0.00000000E+00  0.00000000E+00  0.00000000E+00
  0.00000000E+00  0.00000000E+00  0.00000000E+00
  0.00000000E+00  0.00000000E+00  0.00000000E+00
  0.00000000E+00  0.00000000E+00  0.00000000E+00
  0.00000000E+00  0.00000000E+00  0.00000000E+00
  0.00000000E+00  0.00000000E+00  0.00000000E+00
  0.00000000E+00  0.00000000E+00  0.00000000E+00
  0.00000000E+00  0.00000000E+00  0.00000000E+00
  0.00000000E+00  0.00000000E+00  0.00000000E+00
  0.00000000E+00  0.00000000E+00  0.00000000E+00
  0.00000000E+00  0.00000000E+00  0.00000000E+00
  0.00000000E+00  0.00000000E+00  0.00000000E+00
  0.00000000E+00  0.00000000E+00  0.00000000E+00
  0.00000000E+00  0.00000000E+00  0.00000000E+00
  0.00000000E+00  0.00000000E+00  0.00000000E+00
  0.00000000E+00  0.00000000E+00  0.00000000E+00
  0.00000000E+00  0.00000000E+00  0.00000000E+00
  0.00000000E+00  0.00000000E+00  0.00000000E+00
  0.00000000E+00  0.00000000E+00  0.00000000E+00
  0.00000000E+00  0.00000000E+00  0.00000000E+00
  0.00000000E+00  0.00000000E+00  0.00000000E+00
  0.00000000E+00  0.00000000E+00  0.00000000E+00
  0.00000000E+00  0.00000000E+00  0.00000000E+00
  0.00000000E+00  0.00000000E+00  0.00000000E+00
  0.00000000E+00  0.00000000E+00  0.00000000E+00
  0.00000000E+00  0.00000000E+00  0.00000000E+00
  0.00000000E+00  0.00000000E+00  0.00000000E+00
  0.00000000E+00  0.00000000E+00  0.00000000E+00
  0.00000000E+00  0.00000000E+00  0.00000000E+00
  0.00000000E+00  0.00000000E+00  0.00000000E+00
  0.00000000E+00  0.00000000E+00  0.00000000E+00
  0.00000000E+00  0.00000000E+00  0.00000000E+00
  0.00000000E+00  0.00000000E+00  0.00000000E+00
  0.00000000E+00  0.00000000E+00  0.00000000E+00
  0.00000000E+00  0.00000000E+00  0.00000000E+00
  0.00000000E+00  0.00000000E+00  0.00000000E+00
  0.00000000E+00  0.00000000E+00  0.00000000E+00
  0.00000000E+00  0.00000000E+00  0.00000000E+00
  0.00000000E+00  0.00000000E+00  0.00000000E+00
  0.00000000E+00  0.00000000E+00  0.00000000E+00
  0.00000000E+00  0.00000000E+00  0.00000000E+00
  0.00000000E+00  0.00000000E+00  0.00000000E+00
  0.00000000E+00  0.00000000E+00  0.00000000E+00
  0.00000000E+00  0.00000000E+00  0.00000000E+00
  0.00000000E+00  0.00000000E+00  0.00000000E+00
  0.00000000E+00  0.00000000E+00  0.00000000E+00
  0.00000000E+00  0.00000000E+00  0.00000000E+00
  0.00000000E+00  0.00000000E+00  0.00000000E+00
  0.00000000E+00  0.00000000E+00  0.00000000E+00
  0.00000000E+00  0.00000000E+00  0.00000000E+00
  0.00000000E+00  0.00000000E+00  0.00000000E+00
  0.00000000E+00  0.00000000E+00  0.00000000E+00
  0.00000000E+00  0.00000000E+00  0.00000000E+00
  0.00000000E+00  0.00000000E+00  0.00000000E+00
  0.00000000E+00  0.00000000E+00  0.00000000E+00
  0.00000000E+00  0.00000000E+00  0.00000000E+00
  0.00000000E+00  0.00000000E+00  0.00000000E+00
  0.00000000E+00  0.00000000E+00  0.00000000E+00
  0.00000000E+00  0.00000000E+00  0.00000000E+00
  0.00000000E+00  0.00000000E+00  0.00000000E+00
  0.00000000E+00  0.00000000E+00  0.00000000E+00
  0.00000000E+00  0.00000000E+00  0.00000000E+00
  0.00000000E+00  0.00000000E+00  0.00000000E+00
  0.00000000E+00  0.00000000E+00  0.00000000E+00
  0.00000000E+00  0.00000000E+00  0.00000000E+00
  0.00000000E+00  0.00000000E+00  0.00000000E+00
  0.00000000E+00  0.00000000E+00  0.00000000E+00
  0.00000000E+00  0.00000000E+00  0.00000000E+00
  0.00000000E+00  0.00000000E+00  0.00000000E+00
  0.00000000E+00  0.00000000E+00  0.00000000E+00
  0.00000000E+00  0.00000000E+00  0.00000000E+00
  0.00000000E+00  0.00000000E+00  0.00000000E+00
  0.00000000E+00  0.00000000E+00  0.00000000E+00
  0.00000000E+00  0.00000000E+00  0.00000000E+00
  0.00000000E+00  0.00000000E+00  0.00000000E+00
  0.00000000E+00  0.00000000E+00  0.00000000E+00
  0.00000000E+00  0.00000000E+00  0.00000000E+00
  0.00000000E+00  0.00000000E+00  0.00000000E+00
  0.00000000E+00  0.00000000E+00  0.00000000E+00
  0.00000000E+00  0.00000000E+00  0.00000000E+00
  0.00000000E+00  0.00000000E+00  0.00000000E+00
