Cu Te                                   
   1.00000000000000     
     8.1482185559654816    0.0000000000000000    0.0000000000000005
    -4.0741092779827399    7.0565642650538623    0.0000000000000005
     0.0000000000000000    0.0000000000000000   30.9732619199999988
   Cu   Te
     8    16
Selective dynamics
Direct
  0.0000000000000000  0.0000000000000000  0.4166666666666643   F   F   F
  0.3333333333333357  0.1666666666666643  0.4620647533333369   F   F   F
  0.1666666666666643  0.3333333333333357  0.3712685799999988   F   F   F
  0.0000548718113009  0.0000475495229111  0.5858617601149305   T   T   T
  0.3332981920541229  0.1666822612969270  0.6266307656523722   T   T   T
  0.1666666666666643  0.3333333333333357  0.5379352466666631   F   F   F
  0.0000000000000000  0.5000000000000000  0.4166666666666643   F   F   F
  0.3333333333333357  0.6666666666666643  0.4620647533333369   F   F   F
  0.1666666666666643  0.8333333333333357  0.3712685799999988   F   F   F
  0.0000408801655709  0.5000323105468851  0.5858415288193015   T   T   T
  0.3332976750255483  0.6666294553313676  0.6266504311772536   T   T   T
  0.1666666666666643  0.8333333333333357  0.5379352466666631   F   F   F
  0.5000000000000000  0.0000000000000000  0.4166666666666643   F   F   F
  0.8333333333333357  0.1666666666666643  0.4620647533333369   F   F   F
  0.6666666666666643  0.3333333333333357  0.3712685799999988   F   F   F
  0.4999829002517444  0.0000071569498843  0.5858850500184616   T   T   T
  0.8333786031858352  0.1667115140414310  0.6266695513329310   T   T   T
  0.6666666666666643  0.3333333333333357  0.5379352466666631   F   F   F
  0.5000000000000000  0.5000000000000000  0.4166666666666643   F   F   F
  0.8333333333333357  0.6666666666666643  0.4620647533333369   F   F   F
  0.6666666666666643  0.8333333333333357  0.3712685799999988   F   F   F
  0.4999609014170474  0.4999941288317089  0.5858652809373268   T   T   T
  0.8333545790115906  0.6666449732742592  0.6266852382109320   T   T   T
  0.6666666666666643  0.8333333333333357  0.5379352466666631   F   F   F
 
  0.00000000E+00  0.00000000E+00  0.00000000E+00
  0.00000000E+00  0.00000000E+00  0.00000000E+00
  0.00000000E+00  0.00000000E+00  0.00000000E+00
  0.00000000E+00  0.00000000E+00  0.00000000E+00
  0.00000000E+00  0.00000000E+00  0.00000000E+00
  0.00000000E+00  0.00000000E+00  0.00000000E+00
  0.00000000E+00  0.00000000E+00  0.00000000E+00
  0.00000000E+00  0.00000000E+00  0.00000000E+00
  0.00000000E+00  0.00000000E+00  0.00000000E+00
  0.00000000E+00  0.00000000E+00  0.00000000E+00
  0.00000000E+00  0.00000000E+00  0.00000000E+00
  0.00000000E+00  0.00000000E+00  0.00000000E+00
  0.00000000E+00  0.00000000E+00  0.00000000E+00
  0.00000000E+00  0.00000000E+00  0.00000000E+00
  0.00000000E+00  0.00000000E+00  0.00000000E+00
  0.00000000E+00  0.00000000E+00  0.00000000E+00
  0.00000000E+00  0.00000000E+00  0.00000000E+00
  0.00000000E+00  0.00000000E+00  0.00000000E+00
  0.00000000E+00  0.00000000E+00  0.00000000E+00
  0.00000000E+00  0.00000000E+00  0.00000000E+00
  0.00000000E+00  0.00000000E+00  0.00000000E+00
  0.00000000E+00  0.00000000E+00  0.00000000E+00
  0.00000000E+00  0.00000000E+00  0.00000000E+00
  0.00000000E+00  0.00000000E+00  0.00000000E+00
