Cu Te
 1.0000000000000000
     8.1482185559654816    0.0000000000000000    0.0000000000000005
    -4.0741092779827399    7.0565642650538623    0.0000000000000005
     0.0000000000000000    0.0000000000000000   30.9732619199999988
Cu Te
8 16
Selective dynamics
Cartesian
  0.0000000000000000  0.0000000000000000 12.9055257999999977   F   F   F
  2.0370546389913704  1.1760940441756438 14.3116526289935244   F   F   F
 -0.0000000000000002  2.3521880883512876 11.4993989710064728   F   F   F
  0.0002533855586080  0.0003355362641742 18.1460497449519842   T   T   T
  2.0367047659402067  1.1762040886862641 19.4087988316810964   T   T   T
 -0.0000000000000002  2.3521880883512876 16.6616092910064744   F   F   F
 -2.0370546389913700  3.5282821325269311 12.9055257999999977   F   F   F
  0.0000000000000004  4.7043761767025751 14.3116526289935244   F   F   F
 -2.0370546389913704  5.8804702208782187 11.4993989710064728   F   F   F
 -2.0368531751665189  3.5285101339774543 18.1454231157335251   T   T   T
 -0.0001389486387775  4.7041135925236484 19.4094079371339916   T   T   T
 -2.0370546389913704  5.8804702208782187 16.6616092910064744   F   F   F
  4.0741092779827408  0.0000000000000000 12.9055257999999977   F   F   F
  6.1111639169741112  1.1760940441756438 14.3116526289935244   F   F   F
  4.0741092779827408  2.3521880883512876 11.4993989710064728   F   F   F
  4.0739407873007689  0.0000505034768139 18.1467711092340558   T   T   T
  6.1113500725206551  1.1764105125577962 19.4100001507236897   T   T   T
  4.0741092779827408  2.3521880883512876 16.6616092910064744   F   F   F
  2.0370546389913708  3.5282821325269311 12.9055257999999977   F   F   F
  4.0741092779827408  4.7043761767025751 14.3116526289935244   F   F   F
  2.0370546389913704  5.8804702208782187 11.4993989710064728   F   F   F
  2.0367599749734420  3.5282407022505766 18.1461587963062136   T   T   T
  4.0743707736638566  4.7042230958849212 19.4104860245048343   T   T   T
  2.0370546389913704  5.8804702208782187 16.6616092910064744   F   F   F
