Sb Pd                                   
   1.00000000000000     
    11.5973221502275230    0.0000000000000000    0.0000000000000007
    -5.7986610751137606   10.0435755979690047    0.0000000000000007
     0.0000000000000000    0.0000000000000000   32.8768782300000026
   Sb   Pd
    16    48
Selective dynamics
Direct
  0.3333333333333357  0.1666666666666643  0.4642857142857153   F   F   F
  0.1666666666666643  0.3333333333333357  0.3928571428571459   F   F   F
  0.4164604575000013  0.3329209150000025  0.3928571428571459   F   F   F
  0.1670790849999975  0.0835395424999987  0.3928571428571459   F   F   F
  0.4164604575000013  0.0835395424999987  0.3928571428571459   F   F   F
  0.0835395424999987  0.1670790849999975  0.4642857142857153   F   F   F
  0.3329209150000025  0.4164604575000013  0.4642857142857153   F   F   F
  0.0835395424999987  0.4164604575000013  0.4642857142857153   F   F   F
  0.3332764989989911  0.1666512107407101  0.6064118603182038   T   T   T
  0.1666666666666643  0.3333333333333357  0.5357142857142847   F   F   F
  0.4164604575000013  0.3329209150000025  0.5357142857142847   F   F   F
  0.1670790849999975  0.0835395424999987  0.5357142857142847   F   F   F
  0.4164604575000013  0.0835395424999987  0.5357142857142847   F   F   F
  0.0839647595122273  0.1679470792836284  0.6062117351659282   T   T   T
  0.3320358753169117  0.4160814987313088  0.6062079857763010   T   T   T
  0.0840160050212120  0.4160696268485111  0.6062095903180165   T   T   T
  0.3333333333333357  0.6666666666666643  0.4642857142857153   F   F   F
  0.1666666666666643  0.8333333333333357  0.3928571428571459   F   F   F
  0.4164604575000013  0.8329209150000025  0.3928571428571459   F   F   F
  0.1670790849999975  0.5835395424999987  0.3928571428571459   F   F   F
  0.4164604575000013  0.5835395424999987  0.3928571428571459   F   F   F
  0.0835395424999987  0.6670790849999975  0.4642857142857153   F   F   F
  0.3329209150000025  0.9164604575000013  0.4642857142857153   F   F   F
  0.0835395424999987  0.9164604575000013  0.4642857142857153   F   F   F
  0.3332337531488960  0.6665714626920618  0.6064719923707287   T   T   T
  0.1666666666666643  0.8333333333333357  0.5357142857142847   F   F   F
  0.4164604575000013  0.8329209150000025  0.5357142857142847   F   F   F
  0.1670790849999975  0.5835395424999987  0.5357142857142847   F   F   F
  0.4164604575000013  0.5835395424999987  0.5357142857142847   F   F   F
  0.0839422122484024  0.6679150490662806  0.6062046158771750   T   T   T
  0.3320565877041943  0.9161072431278683  0.6062044281821386   T   T   T
  0.0839716331071116  0.9160430009401210  0.6062045581703401   T   T   T
  0.8333333333333357  0.1666666666666643  0.4642857142857153   F   F   F
  0.6666666666666643  0.3333333333333357  0.3928571428571459   F   F   F
  0.9164604575000013  0.3329209150000025  0.3928571428571459   F   F   F
  0.6670790849999975  0.0835395424999987  0.3928571428571459   F   F   F
  0.9164604575000013  0.0835395424999987  0.3928571428571459   F   F   F
  0.5835395424999987  0.1670790849999975  0.4642857142857153   F   F   F
  0.8329209150000025  0.4164604575000013  0.4642857142857153   F   F   F
  0.5835395424999987  0.4164604575000013  0.4642857142857153   F   F   F
  0.8333792178697905  0.1666901062308739  0.6064948654157973   T   T   T
  0.6666666666666643  0.3333333333333357  0.5357142857142847   F   F   F
  0.9164604575000013  0.3329209150000025  0.5357142857142847   F   F   F
  0.6670790849999975  0.0835395424999987  0.5357142857142847   F   F   F
  0.9164604575000013  0.0835395424999987  0.5357142857142847   F   F   F
  0.5840097175700834  0.1679525152998380  0.6062067605374182   T   T   T
  0.8320818749983516  0.4160756483186248  0.6062014784271312   T   T   T
  0.5839775059235564  0.4160564354667642  0.6062039880068681   T   T   T
  0.8333333333333357  0.6666666666666643  0.4642857142857153   F   F   F
  0.6666666666666643  0.8333333333333357  0.3928571428571459   F   F   F
  0.9164604575000013  0.8329209150000025  0.3928571428571459   F   F   F
  0.6670790849999975  0.5835395424999987  0.3928571428571459   F   F   F
  0.9164604575000013  0.5835395424999987  0.3928571428571459   F   F   F
  0.5835395424999987  0.6670790849999975  0.4642857142857153   F   F   F
  0.8329209150000025  0.9164604575000013  0.4642857142857153   F   F   F
  0.5835395424999987  0.9164604575000013  0.4642857142857153   F   F   F
  0.8333226923257939  0.6666198815337481  0.6065580538660669   T   T   T
  0.6666666666666643  0.8333333333333357  0.5357142857142847   F   F   F
  0.9164604575000013  0.8329209150000025  0.5357142857142847   F   F   F
  0.6670790849999975  0.5835395424999987  0.5357142857142847   F   F   F
  0.9164604575000013  0.5835395424999987  0.5357142857142847   F   F   F
  0.5839757820331144  0.6679132104865246  0.6062002096487475   T   T   T
  0.8320932935938359  0.9161191020432113  0.6061988425948854   T   T   T
  0.5839542547504735  0.9160398780749475  0.6062040171382463   T   T   T
 
  0.00000000E+00  0.00000000E+00  0.00000000E+00
  0.00000000E+00  0.00000000E+00  0.00000000E+00
  0.00000000E+00  0.00000000E+00  0.00000000E+00
  0.00000000E+00  0.00000000E+00  0.00000000E+00
  0.00000000E+00  0.00000000E+00  0.00000000E+00
  0.00000000E+00  0.00000000E+00  0.00000000E+00
  0.00000000E+00  0.00000000E+00  0.00000000E+00
  0.00000000E+00  0.00000000E+00  0.00000000E+00
  0.00000000E+00  0.00000000E+00  0.00000000E+00
  0.00000000E+00  0.00000000E+00  0.00000000E+00
  0.00000000E+00  0.00000000E+00  0.00000000E+00
  0.00000000E+00  0.00000000E+00  0.00000000E+00
  0.00000000E+00  0.00000000E+00  0.00000000E+00
  0.00000000E+00  0.00000000E+00  0.00000000E+00
  0.00000000E+00  0.00000000E+00  0.00000000E+00
  0.00000000E+00  0.00000000E+00  0.00000000E+00
  0.00000000E+00  0.00000000E+00  0.00000000E+00
  0.00000000E+00  0.00000000E+00  0.00000000E+00
  0.00000000E+00  0.00000000E+00  0.00000000E+00
  0.00000000E+00  0.00000000E+00  0.00000000E+00
  0.00000000E+00  0.00000000E+00  0.00000000E+00
  0.00000000E+00  0.00000000E+00  0.00000000E+00
  0.00000000E+00  0.00000000E+00  0.00000000E+00
  0.00000000E+00  0.00000000E+00  0.00000000E+00
  0.00000000E+00  0.00000000E+00  0.00000000E+00
  0.00000000E+00  0.00000000E+00  0.00000000E+00
  0.00000000E+00  0.00000000E+00  0.00000000E+00
  0.00000000E+00  0.00000000E+00  0.00000000E+00
  0.00000000E+00  0.00000000E+00  0.00000000E+00
  0.00000000E+00  0.00000000E+00  0.00000000E+00
  0.00000000E+00  0.00000000E+00  0.00000000E+00
  0.00000000E+00  0.00000000E+00  0.00000000E+00
  0.00000000E+00  0.00000000E+00  0.00000000E+00
  0.00000000E+00  0.00000000E+00  0.00000000E+00
  0.00000000E+00  0.00000000E+00  0.00000000E+00
  0.00000000E+00  0.00000000E+00  0.00000000E+00
  0.00000000E+00  0.00000000E+00  0.00000000E+00
  0.00000000E+00  0.00000000E+00  0.00000000E+00
  0.00000000E+00  0.00000000E+00  0.00000000E+00
  0.00000000E+00  0.00000000E+00  0.00000000E+00
  0.00000000E+00  0.00000000E+00  0.00000000E+00
  0.00000000E+00  0.00000000E+00  0.00000000E+00
  0.00000000E+00  0.00000000E+00  0.00000000E+00
  0.00000000E+00  0.00000000E+00  0.00000000E+00
  0.00000000E+00  0.00000000E+00  0.00000000E+00
  0.00000000E+00  0.00000000E+00  0.00000000E+00
  0.00000000E+00  0.00000000E+00  0.00000000E+00
  0.00000000E+00  0.00000000E+00  0.00000000E+00
  0.00000000E+00  0.00000000E+00  0.00000000E+00
  0.00000000E+00  0.00000000E+00  0.00000000E+00
  0.00000000E+00  0.00000000E+00  0.00000000E+00
  0.00000000E+00  0.00000000E+00  0.00000000E+00
  0.00000000E+00  0.00000000E+00  0.00000000E+00
  0.00000000E+00  0.00000000E+00  0.00000000E+00
  0.00000000E+00  0.00000000E+00  0.00000000E+00
  0.00000000E+00  0.00000000E+00  0.00000000E+00
  0.00000000E+00  0.00000000E+00  0.00000000E+00
  0.00000000E+00  0.00000000E+00  0.00000000E+00
  0.00000000E+00  0.00000000E+00  0.00000000E+00
  0.00000000E+00  0.00000000E+00  0.00000000E+00
  0.00000000E+00  0.00000000E+00  0.00000000E+00
  0.00000000E+00  0.00000000E+00  0.00000000E+00
  0.00000000E+00  0.00000000E+00  0.00000000E+00
  0.00000000E+00  0.00000000E+00  0.00000000E+00
