Sb Pd
 1.0000000000000000
    11.5973221502275230    0.0000000000000000    0.0000000000000007
    -5.7986610751137606   10.0435755979690047    0.0000000000000007
     0.0000000000000000    0.0000000000000000   32.8768782300000026
Sb Pd
16 48
Selective dynamics
Cartesian
  2.8993305375568807  1.6739292663281677 15.2642648925000017   F   F   F
 -0.0000000000000004  3.3478585326563355 12.9159164475000008   F   F   F
  2.8993305375568803  3.3437163779475134 12.9159164475000008   F   F   F
  1.4532524799826856  0.8390357105184936 12.9159164475000008   F   F   F
  4.3454085951310768  0.8390357105184941 12.9159164475000008   F   F   F
 -0.0000000000000008  1.6780714210369887 15.2642648925000017   F   F   F
  1.4460780575741961  4.1827520884660077 15.2642648925000017   F   F   F
 -1.4460780575741956  4.1827520884660085 15.2642648925000017   F   F   F
  2.8987610351485555  1.6737740335673781 19.9369288889093745   T   T   T
 -0.0000000000000004  3.3478585326563355 17.6126133375000009   F   F   F
  2.8993305375568803  3.3437163779475134 17.6126133375000009   F   F   F
  1.4532524799826856  0.8390357105184936 17.6126133375000009   F   F   F
  4.3454085951310768  0.8390357105184941 17.6126133375000009   F   F   F
 -0.0001018259913516  1.6867891872432346 19.9303493986472908   T   T   T
  1.4380114207147567  4.1789459874241617 19.9302261304211292   T   T   T
 -1.4382860737373995  4.1788267512717763 19.9302788827436466   T   T   T
  0.0000000000000004  6.6957170653126701 15.2642648925000017   F   F   F
 -2.8993305375568807  8.3696463316408369 12.9159164475000008   F   F   F
  0.0000000000000000  8.3655041769320153 12.9159164475000008   F   F   F
 -1.4460780575741947  5.8608235095029961 12.9159164475000008   F   F   F
  1.4460780575741965  5.8608235095029961 12.9159164475000008   F   F   F
 -2.8993305375568812  6.6998592200214908 15.2642648925000017   F   F   F
 -1.4532524799826843  9.2045398874505100 15.2642648925000017   F   F   F
 -4.3454085951310759  9.2045398874505118 15.2642648925000017   F   F   F
 -0.0006028078969389  6.6947608769964750 19.9389058430780146   T   T   T
 -2.8993305375568807  8.3696463316408369 17.6126133375000009   F   F   F
  0.0000000000000000  8.3655041769320153 17.6126133375000009   F   F   F
 -1.4460780575741947  5.8608235095029961 17.6126133375000009   F   F   F
  1.4460780575741965  5.8608235095029961 17.6126133375000009   F   F   F
 -2.8995081190558554  6.7082552883183517 19.9301153386578385   T   T   T
 -1.4612281916445409  9.2009923522017107 19.9301091678308744   T   T   T
 -4.3379768120579598  9.2003471309324887 19.9301134414373387   T   T   T
  8.6979916126706414  1.6739292663281677 15.2642648925000017   F   F   F
  5.7986610751137615  3.3478585326563355 12.9159164475000008   F   F   F
  8.6979916126706414  3.3437163779475134 12.9159164475000008   F   F   F
  7.2519135550964471  0.8390357105184936 12.9159164475000008   F   F   F
 10.1440696702448392  0.8390357105184941 12.9159164475000008   F   F   F
  5.7986610751137606  1.6780714210369887 15.2642648925000017   F   F   F
  7.2447391326879576  4.1827520884660077 15.2642648925000017   F   F   F
  4.3525830175395654  4.1827520884660085 15.2642648925000017   F   F   F
  8.6983878323330757  1.6741646833632959 19.9396578373954121   T   T   T
  5.7986610751137615  3.3478585326563355 17.6126133375000009   F   F   F
  8.6979916126706414  3.3437163779475134 17.6126133375000009   F   F   F
  7.2519135550964471  0.8390357105184936 17.6126133375000009   F   F   F
 10.1440696702448392  0.8390357105184941 17.6126133375000009   F   F   F
  5.7990491205870613  1.6868437842829416 19.9301858483914707   T   T   T
  7.2372398935133084  4.1788872283620764 19.9300121890947644   T   T   T
  4.3600050072901482  4.1786942626319838 19.9300946962422181   T   T   T
  5.7986610751137615  6.6957170653126701 15.2642648925000017   F   F   F
  2.8993305375568807  8.3696463316408369 12.9159164475000008   F   F   F
  5.7986610751137615  8.3655041769320153 12.9159164475000008   F   F   F
  4.3525830175395672  5.8608235095029961 12.9159164475000008   F   F   F
  7.2447391326879576  5.8608235095029961 12.9159164475000008   F   F   F
  2.8993305375568803  6.6998592200214908 15.2642648925000017   F   F   F
  4.3454085951310777  9.2045398874505100 15.2642648925000017   F   F   F
  1.4532524799826856  9.2045398874505118 15.2642648925000017   F   F   F
  5.7988089590504952  6.6952471752933667 19.9417352763804097   T   T   T
  2.8993305375568807  8.3696463316408369 17.6126133375000009   F   F   F
  5.7986610751137615  8.3655041769320153 17.6126133375000009   F   F   F
  4.3525830175395672  5.8608235095029961 17.6126133375000009   F   F   F
  7.2447391326879576  5.8608235095029961 17.6126133375000009   F   F   F
  2.8995529369666024  6.7082368224035882 19.9299704756223086   T   T   T
  4.3377898076654606  9.2011114581144557 19.9299255311590109   T   T   T
  1.4605008290921173  9.2003157662000667 19.9300956539910707   T   T   T
