Au Te H O                               
   1.00000000000000     
     8.5241530005360673    0.0000000000000000   -0.0770182540525434
    -4.2066496155703907   12.7802637406406916   -0.0851590815318037
     0.0000000000000000    0.0000000000000000   36.2381287890936647
   Au   Te   H    O 
    12    24     1     1
Selective dynamics
Direct
  0.3333333333333357  0.0000000000000000  0.4166666666666643   F   F   F
  0.1683742104361343  0.1633682100310523  0.5825164956094113   T   T   T
  0.0000000000000000  0.3333333333333357  0.5000000000000000   F   F   F
  0.4872318762039853  0.3014517124074132  0.5911516430002735   T   T   T
  0.3333271833333313  0.4838922149999973  0.4973143441666679   F   F   F
  0.1666605166666670  0.1505588816666688  0.4139810108333322   F   F   F
  0.3499191217966811  0.0200527389697598  0.5789289519400995   T   T   T
  0.1666728166666687  0.1827744516666669  0.5026856558333321   F   F   F
  0.0000061499999973  0.3494411183333312  0.4193523225000035   F   F   F
  0.3333333333333357  0.5000000000000000  0.4166666666666643   F   F   F
  0.1723109434500287  0.6662376123324307  0.5815006759290995   T   T   T
  0.0000000000000000  0.8333333333333357  0.5000000000000000   F   F   F
  0.4911349499808608  0.8079834132027486  0.5811589205780407   T   T   T
  0.3333271833333313  0.9838922149999973  0.4973143441666679   F   F   F
  0.1666605166666670  0.6505588816666688  0.4139810108333322   F   F   F
  0.3493615633536322  0.5243219057643813  0.5797264251458643   T   T   T
  0.1666728166666687  0.6827744516666669  0.5026856558333321   F   F   F
  0.0000061499999973  0.8494411183333312  0.4193523225000035   F   F   F
  0.8333333333333357  0.0000000000000000  0.4166666666666643   F   F   F
  0.6717661992713388  0.1645488311903804  0.5826307278122798   T   T   T
  0.5000000000000000  0.3333333333333357  0.5000000000000000   F   F   F
  0.9899981051966122  0.3063577751608975  0.5811191559288105   T   T   T
  0.8333271833333313  0.4838922149999973  0.4973143441666679   F   F   F
  0.6666605166666670  0.1505588816666688  0.4139810108333322   F   F   F
  0.8497070816874981  0.0219682366614862  0.5802436735543708   T   T   T
  0.6666728166666687  0.1827744516666669  0.5026856558333321   F   F   F
  0.5000061499999973  0.3494411183333312  0.4193523225000035   F   F   F
  0.8333333333333357  0.5000000000000000  0.4166666666666643   F   F   F
  0.6710125437817993  0.6645295644827343  0.5804320252691184   T   T   T
  0.5000000000000000  0.8333333333333357  0.5000000000000000   F   F   F
  0.9889159384022079  0.8050028618538718  0.5808462590737378   T   T   T
  0.8333271833333313  0.9838922149999973  0.4973143441666679   F   F   F
  0.6666605166666670  0.6505588816666688  0.4139810108333322   F   F   F
  0.8536684150138143  0.5219821900511121  0.5808635337177321   T   T   T
  0.6666728166666687  0.6827744516666669  0.5026856558333321   F   F   F
  0.5000061499999973  0.8494411183333312  0.4193523225000035   F   F   F
  0.4920913964510945  0.2861528774479964  0.6606257313987030   T   T   T
  0.5068413290973481  0.3480508797349557  0.6453779958920904   T   T   T
 
  0.00000000E+00  0.00000000E+00  0.00000000E+00
  0.00000000E+00  0.00000000E+00  0.00000000E+00
  0.00000000E+00  0.00000000E+00  0.00000000E+00
  0.00000000E+00  0.00000000E+00  0.00000000E+00
  0.00000000E+00  0.00000000E+00  0.00000000E+00
  0.00000000E+00  0.00000000E+00  0.00000000E+00
  0.00000000E+00  0.00000000E+00  0.00000000E+00
  0.00000000E+00  0.00000000E+00  0.00000000E+00
  0.00000000E+00  0.00000000E+00  0.00000000E+00
  0.00000000E+00  0.00000000E+00  0.00000000E+00
  0.00000000E+00  0.00000000E+00  0.00000000E+00
  0.00000000E+00  0.00000000E+00  0.00000000E+00
  0.00000000E+00  0.00000000E+00  0.00000000E+00
  0.00000000E+00  0.00000000E+00  0.00000000E+00
  0.00000000E+00  0.00000000E+00  0.00000000E+00
  0.00000000E+00  0.00000000E+00  0.00000000E+00
  0.00000000E+00  0.00000000E+00  0.00000000E+00
  0.00000000E+00  0.00000000E+00  0.00000000E+00
  0.00000000E+00  0.00000000E+00  0.00000000E+00
  0.00000000E+00  0.00000000E+00  0.00000000E+00
  0.00000000E+00  0.00000000E+00  0.00000000E+00
  0.00000000E+00  0.00000000E+00  0.00000000E+00
  0.00000000E+00  0.00000000E+00  0.00000000E+00
  0.00000000E+00  0.00000000E+00  0.00000000E+00
  0.00000000E+00  0.00000000E+00  0.00000000E+00
  0.00000000E+00  0.00000000E+00  0.00000000E+00
  0.00000000E+00  0.00000000E+00  0.00000000E+00
  0.00000000E+00  0.00000000E+00  0.00000000E+00
  0.00000000E+00  0.00000000E+00  0.00000000E+00
  0.00000000E+00  0.00000000E+00  0.00000000E+00
  0.00000000E+00  0.00000000E+00  0.00000000E+00
  0.00000000E+00  0.00000000E+00  0.00000000E+00
  0.00000000E+00  0.00000000E+00  0.00000000E+00
  0.00000000E+00  0.00000000E+00  0.00000000E+00
  0.00000000E+00  0.00000000E+00  0.00000000E+00
  0.00000000E+00  0.00000000E+00  0.00000000E+00
  0.00000000E+00  0.00000000E+00  0.00000000E+00
  0.00000000E+00  0.00000000E+00  0.00000000E+00
