Au Te H O
 1.0000000000000000
     8.5241530005360673    0.0000000000000000   -0.0770182540525434
    -4.2066496155703907   12.7802637406406916   -0.0851590815318037
     0.0000000000000000    0.0000000000000000   36.2381287890936647
Au Te H O
12 24 1 1
Selective dynamics
Cartesian
  2.8413843335120212  0.0000000000000014 15.0735475774381769   F   F   F
  0.7480147131785377  2.0878888110331966 21.0824276152324757   T   T   T
 -1.4022165385234637  4.2600879135468981 18.0906780340362303   F   F   F
  2.8851373293893126  3.8526323896345325 21.3590322735493814   T   T   T
  0.8057669097638160  6.1842701297428109 17.9548611582969428   F   F   F
  0.7872912815312623  1.9241822161959123 14.9762398287251592   F   F   F
  2.8984092853298207  0.2562792927557972 20.9506440874871451   T   T   T
  0.6518765134572924  2.3359056973509840 18.1879857827492479   F   F   F
 -1.4699239225604535  4.4659496541244339 15.1667849124115648   F   F   F
  0.7380595257268259  6.3901318703203476 15.0309680366722755   F   F   F
 -1.3338233501619567  8.5146923995431507 21.0024891140969707   T   T   T
 -3.5055413463086591 10.6502197838672430 18.0480984932703272   F   F   F
  0.7876063430108862 10.3262411187941545 20.9534783291245965   T   T   T
 -1.2975578980213793 12.5744020000631558 17.9122816175310398   F   F   F
 -1.3160335262539331  8.3143140865162586 14.9336602879592579   F   F   F
  0.7723728752139518  6.7009722406641483 20.9366428673121376   T   T   T
 -1.4514482943279030  8.7260375676713302 18.1454062419833448   F   F   F
 -3.5732487303456488 10.8560815244447788 15.1242053716456635   F   F   F
  7.1034608337800549  0.0000000000000014 15.0350384504119052   F   F   F
  5.0340385857078900  2.1029774608272485 21.0476962638140890   T   T   T
  2.8598599617445699  4.2600879135468981 18.0521689070099569   F   F   F
  7.1501555018291469  3.9153331655521519 20.9563337420272617   T   T   T
  5.0678434100318501  6.1842701297428109 17.9163520312706694   F   F   F
  5.0493677817992957  1.9241822161959123 14.9377307016988876   F   F   F
  7.1506204956364012  0.2807598584506273 20.9596312205755844   T   T   T
  4.9139530137253260  2.3359056973509840 18.1494766557229745   F   F   F
  2.7921525777075802  4.4659496541244339 15.1282757853852932   F   F   F
  5.0001360259948591  6.3901318703203476 14.9924589096460039   F   F   F
  2.9243705515085203  8.4928630975424539 20.9254995430852375   T   T   T
  0.7565351539593745 10.6502197838672430 18.0095893662440574   F   F   F
  5.0433057842584681 10.2881488864630448 20.9040636596510367   T   T   T
  2.9645186022466543 12.5744020000631558 17.8737724905047699   F   F   F
  2.9460429740141008  8.3143140865162586 14.8951511609329863   F   F   F
  5.0810040021897880  6.6710700567704659 20.9392079690062580   T   T   T
  2.8106282059401306  8.7260375676713302 18.1068971149570750   F   F   F
  0.6888277699223848 10.8560815244447788 15.0856962446193918   F   F   F
  2.9909174616856151  3.6571092439286357 23.8775717994053061   T   T   T
  2.8562649367848363  4.4481820381747434 23.3186152052913656   T   T   T
