Ge Sb Te O                              
   1.00000000000000     
     8.7539296461632610    0.0000000000000000   -0.0000000000000005
     4.3769648230816331    7.5811254565191044   -0.0000000000000004
     0.0000000000000000    0.0000000000000064   52.6154257406547643
   Ge   Sb   Te   O 
     4    16    16     1
Selective dynamics
Direct
  0.0833333333333357  0.4166666666666643  0.4613765550000011   F   F   F
  0.3774916628456921  0.2147112230855228  0.6777966126444639   T   T   T
  0.1744387684503650  0.9988482898111926  0.7059142327514749   T   T   T
  0.2500000000000000  0.0833333333333357  0.5327799616666695   F   F   F
  0.4166666666666643  0.2500000000000000  0.3899731483333326   F   F   F
  0.4166666666666643  0.2500000000000000  0.4941097450000029   F   F   F
  0.2500000000000000  0.0833333333333357  0.4286433649999992   F   F   F
  0.0833333333333357  0.4166666666666643  0.5656362116666642   F   F   F
  0.0833333333333357  0.4166666666666643  0.3571168983333308   F   F   F
  0.0833333333333357  0.9166666666666643  0.4613765550000011   F   F   F
  0.4057121116303151  0.7274111877679843  0.6683575982685070   T   T   T
  0.2329932329007462  0.5721669551560638  0.6989526230731968   T   T   T
  0.2500000000000000  0.5833333333333357  0.5327799616666695   F   F   F
  0.4166666666666643  0.7500000000000000  0.3899731483333326   F   F   F
  0.4166666666666643  0.7500000000000000  0.4941097450000029   F   F   F
  0.2500000000000000  0.5833333333333357  0.4286433649999992   F   F   F
  0.0833333333333357  0.9166666666666643  0.5656362116666642   F   F   F
  0.0833333333333357  0.9166666666666643  0.3571168983333308   F   F   F
  0.5833333333333357  0.4166666666666643  0.4613765550000011   F   F   F
  0.8850483422391022  0.1849514985987497  0.6683866997217009   T   T   T
  0.7345132946694619  0.0198754060363058  0.7003360261631286   T   T   T
  0.7500000000000000  0.0833333333333357  0.5327799616666695   F   F   F
  0.9166666666666643  0.2500000000000000  0.3899731483333326   F   F   F
  0.9166666666666643  0.2500000000000000  0.4941097450000029   F   F   F
  0.7500000000000000  0.0833333333333357  0.4286433649999992   F   F   F
  0.5833333333333357  0.4166666666666643  0.5656362116666642   F   F   F
  0.5833333333333357  0.4166666666666643  0.3571168983333308   F   F   F
  0.5833333333333357  0.9166666666666643  0.4613765550000011   F   F   F
  0.9027720604876848  0.7013582812283445  0.6692843818003809   T   T   T
  0.7309843632554376  0.5292102393122065  0.6978275858707050   T   T   T
  0.7500000000000000  0.5833333333333357  0.5327799616666695   F   F   F
  0.9166666666666643  0.7500000000000000  0.3899731483333326   F   F   F
  0.9166666666666643  0.7500000000000000  0.4941097450000029   F   F   F
  0.7500000000000000  0.5833333333333357  0.4286433649999992   F   F   F
  0.5833333333333357  0.9166666666666643  0.5656362116666642   F   F   F
  0.5833333333333357  0.9166666666666643  0.3571168983333308   F   F   F
  0.2486852134112567  0.1837111404433784  0.7073811658450708   T   T   T
 
  0.00000000E+00  0.00000000E+00  0.00000000E+00
  0.00000000E+00  0.00000000E+00  0.00000000E+00
  0.00000000E+00  0.00000000E+00  0.00000000E+00
  0.00000000E+00  0.00000000E+00  0.00000000E+00
  0.00000000E+00  0.00000000E+00  0.00000000E+00
  0.00000000E+00  0.00000000E+00  0.00000000E+00
  0.00000000E+00  0.00000000E+00  0.00000000E+00
  0.00000000E+00  0.00000000E+00  0.00000000E+00
  0.00000000E+00  0.00000000E+00  0.00000000E+00
  0.00000000E+00  0.00000000E+00  0.00000000E+00
  0.00000000E+00  0.00000000E+00  0.00000000E+00
  0.00000000E+00  0.00000000E+00  0.00000000E+00
  0.00000000E+00  0.00000000E+00  0.00000000E+00
  0.00000000E+00  0.00000000E+00  0.00000000E+00
  0.00000000E+00  0.00000000E+00  0.00000000E+00
  0.00000000E+00  0.00000000E+00  0.00000000E+00
  0.00000000E+00  0.00000000E+00  0.00000000E+00
  0.00000000E+00  0.00000000E+00  0.00000000E+00
  0.00000000E+00  0.00000000E+00  0.00000000E+00
  0.00000000E+00  0.00000000E+00  0.00000000E+00
  0.00000000E+00  0.00000000E+00  0.00000000E+00
  0.00000000E+00  0.00000000E+00  0.00000000E+00
  0.00000000E+00  0.00000000E+00  0.00000000E+00
  0.00000000E+00  0.00000000E+00  0.00000000E+00
  0.00000000E+00  0.00000000E+00  0.00000000E+00
  0.00000000E+00  0.00000000E+00  0.00000000E+00
  0.00000000E+00  0.00000000E+00  0.00000000E+00
  0.00000000E+00  0.00000000E+00  0.00000000E+00
  0.00000000E+00  0.00000000E+00  0.00000000E+00
  0.00000000E+00  0.00000000E+00  0.00000000E+00
  0.00000000E+00  0.00000000E+00  0.00000000E+00
  0.00000000E+00  0.00000000E+00  0.00000000E+00
  0.00000000E+00  0.00000000E+00  0.00000000E+00
  0.00000000E+00  0.00000000E+00  0.00000000E+00
  0.00000000E+00  0.00000000E+00  0.00000000E+00
  0.00000000E+00  0.00000000E+00  0.00000000E+00
  0.00000000E+00  0.00000000E+00  0.00000000E+00
