Ge Sb Te O
 1.0000000000000000
     8.7539296461632610   -0.0000000000000000   -0.0000000000000005
     4.3769648230816331    7.5811254565191044   -0.0000000000000004
    -0.0000000000000000    0.0000000000000064   52.6154257406547643
Ge Sb Te O
4 16 16 1
Selective dynamics
Cartesian
  2.5532294801309523  3.1588022735496315 24.2755238680816383   F   F   F
  4.2443189291305679  1.6277527191340160 35.6625573398622322   T   T   T
  1.5219837115950696 -0.0087312594308785 37.1419778926063273   T   T   T
  2.5532294801309514  0.6317604547099285 28.0324445091814063   F   F   F
  4.7417118916717662  1.8952813641297785 20.5186032269818419   F   F   F
  4.7417118916717662  1.8952813641297790 25.9977945957813859   F   F   F
  2.5532294801309519  0.6317604547099279 22.5532531403818908   F   F   F
  2.5532294801309519  3.1588022735496315 29.7611900911727965   F   F   F
  2.5532294801309523  3.1588022735496306 18.7898576449904589   F   F   F
  4.7417118916717689  6.9493650018091842 24.2755238680816383   F   F   F
  6.7354284625846308  5.5145954729446638 35.1659195798991817   T   T   T
  4.5439610044930685  4.3376694691126580 36.7756898355435524   T   T   T
  4.7417118916717680  4.4223231829694809 28.0324445091814063   F   F   F
  6.9301943032125823  5.6858440923893312 20.5186032269818419   F   F   F
  6.9301943032125823  5.6858440923893312 25.9977945957813859   F   F   F
  4.7417118916717680  4.4223231829694800 22.5532531403818908   F   F   F
  4.7417118916717680  6.9493650018091842 29.7611900911727965   F   F   F
  4.7417118916717689  6.9493650018091824 18.7898576449904589   F   F   F
  6.9301943032125823  3.1588022735496315 24.2755238680816383   F   F   F
  8.5571771247574500  1.4021405142483236 35.1674507652486312   T   T   T
  6.5168716587734057  0.1506779466604896 36.8484781780914901   T   T   T
  6.9301943032125823  0.6317604547099285 28.0324445091814063   F   F   F
  9.1186767147533967  1.8952813641297785 20.5186032269818419   F   F   F
  9.1186767147533967  1.8952813641297790 25.9977945957813859   F   F   F
  6.9301943032125823  0.6317604547099279 22.5532531403818908   F   F   F
  6.9301943032125823  3.1588022735496315 29.7611900911727965   F   F   F
  6.9301943032125823  3.1588022735496306 18.7898576449904589   F   F   F
  9.1186767147533985  6.9493650018091842 24.2755238680816383   F   F   F
 10.9726236293445290  5.3170851199607094 35.2146826899978436   T   T   T
  8.7153202898676838  4.0120092171003456 36.7164955241603721   T   T   T
  9.1186767147533985  4.4223231829694809 28.0324445091814063   F   F   F
 11.3071591262942128  5.6858440923893312 20.5186032269818419   F   F   F
 11.3071591262942128  5.6858440923893312 25.9977945957813859   F   F   F
  9.1186767147533985  4.4223231829694800 22.5532531403818908   F   F   F
  9.1186767147533985  6.9493650018091842 29.7611900911727965   F   F   F
  9.1186767147533985  6.9493650018091824 18.7898576449904589   F   F   F
  2.9810700615720807  1.3927372034614516 37.2191612018592934   T   T   T
