Na Bi Se                                
   1.00000000000000     
    11.9801775753655839    0.0000000000000000    0.0000000000000007
    -0.0000000000000008   12.4298486419954219    0.0000000000000008
     0.0000000000000000    0.0000000000000000   35.9405327260967482
   Na   Bi   Se
    16    16    32
Selective dynamics
Direct
  0.0000000000000000  0.0000000000000000  0.4583333333333357   F   F   F
  0.2500000000000000  0.7500000000000000  0.4583333333333357   F   F   F
  0.2500000000000000  0.5000000000000000  0.3750000000000000   F   F   F
  0.0000000000000000  0.2500000000000000  0.3750000000000000   F   F   F
  0.2500000000000000  0.0000000000000000  0.3750000000000000   F   F   F
  0.0000000000000000  0.7500000000000000  0.3750000000000000   F   F   F
  0.0000000000000000  0.5000000000000000  0.4583333333333357   F   F   F
  0.2500000000000000  0.2500000000000000  0.4583333333333357   F   F   F
  0.2500000000000000  0.7598766449999985  0.3750000000000000   F   F   F
  0.0000000000000000  0.5098766449999985  0.3750000000000000   F   F   F
  0.0000000000000000  0.7401233550000015  0.4583333333333357   F   F   F
  0.0000000000000000  0.9901233550000015  0.3750000000000000   F   F   F
  0.0000000000000000  0.2598766449999985  0.4583333333333357   F   F   F
  0.2500000000000000  0.0098766449999985  0.4583333333333357   F   F   F
  0.2500000000000000  0.2401233550000015  0.3750000000000000   F   F   F
  0.2500000000000000  0.4901233550000015  0.4583333333333357   F   F   F
  0.9999988500084740  0.0007280628348809  0.6244126345301382   T   T   T
  0.2500001879961431  0.7492729119761918  0.6244126313408316   T   T   T
  0.2500000000000000  0.5000000000000000  0.5416666666666643   F   F   F
  0.0000000000000000  0.2500000000000000  0.5416666666666643   F   F   F
  0.2500110210171016  0.9922395264517121  0.5486420601242230   T   T   T
  0.9999888677252642  0.7577603960651231  0.5486421000349111   T   T   T
  0.0001974397105045  0.4959656753194110  0.6178973392974996   T   T   T
  0.2497996277224175  0.2540340149864804  0.6178973937404493   T   T   T
  0.2500000000000000  0.7598766449999985  0.5416666666666643   F   F   F
  0.0000000000000000  0.5098766449999985  0.5416666666666643   F   F   F
  0.9999599794837621  0.7431562965426437  0.6254878421646524   T   T   T
  0.0000000000000000  0.9901233550000015  0.5416666666666643   F   F   F
  0.0001757502713176  0.2633540157563203  0.6278140979459863   T   T   T
  0.2500395364114070  0.0068442620259006  0.6254880545911234   T   T   T
  0.2500000000000000  0.2401233550000015  0.5416666666666643   F   F   F
  0.2498263161009930  0.4866464732173981  0.6278142411891281   T   T   T
  0.5000000000000000  0.0000000000000000  0.4583333333333357   F   F   F
  0.7500000000000000  0.7500000000000000  0.4583333333333357   F   F   F
  0.7500000000000000  0.5000000000000000  0.3750000000000000   F   F   F
  0.5000000000000000  0.2500000000000000  0.3750000000000000   F   F   F
  0.7500000000000000  0.0000000000000000  0.3750000000000000   F   F   F
  0.5000000000000000  0.7500000000000000  0.3750000000000000   F   F   F
  0.5000000000000000  0.5000000000000000  0.4583333333333357   F   F   F
  0.7500000000000000  0.2500000000000000  0.4583333333333357   F   F   F
  0.7500000000000000  0.7598766449999985  0.3750000000000000   F   F   F
  0.5000000000000000  0.5098766449999985  0.3750000000000000   F   F   F
  0.5000000000000000  0.7401233550000015  0.4583333333333357   F   F   F
  0.5000000000000000  0.9901233550000015  0.3750000000000000   F   F   F
  0.5000000000000000  0.2598766449999985  0.4583333333333357   F   F   F
  0.7500000000000000  0.0098766449999985  0.4583333333333357   F   F   F
  0.7500000000000000  0.2401233550000015  0.3750000000000000   F   F   F
  0.7500000000000000  0.4901233550000015  0.4583333333333357   F   F   F
  0.5000468418943029  0.0007341622333144  0.6244231740185953   T   T   T
  0.7499541587641971  0.7492668578995634  0.6244229966463735   T   T   T
  0.7500000000000000  0.5000000000000000  0.5416666666666643   F   F   F
  0.5000000000000000  0.2500000000000000  0.5416666666666643   F   F   F
  0.7500796363128259  0.9922223531937817  0.5486411373909945   T   T   T
  0.4999203628055184  0.7577776043639801  0.5486409907775567   T   T   T
  0.5003308046265715  0.4959981485636149  0.6179045520753235   T   T   T
  0.7496659385810318  0.2540028958923344  0.6179045448229559   T   T   T
  0.7500000000000000  0.7598766449999985  0.5416666666666643   F   F   F
  0.5000000000000000  0.5098766449999985  0.5416666666666643   F   F   F
  0.4999562844837016  0.7431477202090235  0.6255054572730714   T   T   T
  0.5000000000000000  0.9901233550000015  0.5416666666666643   F   F   F
  0.5002445635049639  0.2633850691266417  0.6278521191318305   T   T   T
  0.7500424730486088  0.0068515900779929  0.6255056494202904   T   T   T
  0.7500000000000000  0.2401233550000015  0.5416666666666643   F   F   F
  0.7497572070493916  0.4866151101614591  0.6278520403599259   T   T   T
 
  0.00000000E+00  0.00000000E+00  0.00000000E+00
  0.00000000E+00  0.00000000E+00  0.00000000E+00
  0.00000000E+00  0.00000000E+00  0.00000000E+00
  0.00000000E+00  0.00000000E+00  0.00000000E+00
  0.00000000E+00  0.00000000E+00  0.00000000E+00
  0.00000000E+00  0.00000000E+00  0.00000000E+00
  0.00000000E+00  0.00000000E+00  0.00000000E+00
  0.00000000E+00  0.00000000E+00  0.00000000E+00
  0.00000000E+00  0.00000000E+00  0.00000000E+00
  0.00000000E+00  0.00000000E+00  0.00000000E+00
  0.00000000E+00  0.00000000E+00  0.00000000E+00
  0.00000000E+00  0.00000000E+00  0.00000000E+00
  0.00000000E+00  0.00000000E+00  0.00000000E+00
  0.00000000E+00  0.00000000E+00  0.00000000E+00
  0.00000000E+00  0.00000000E+00  0.00000000E+00
  0.00000000E+00  0.00000000E+00  0.00000000E+00
  0.00000000E+00  0.00000000E+00  0.00000000E+00
  0.00000000E+00  0.00000000E+00  0.00000000E+00
  0.00000000E+00  0.00000000E+00  0.00000000E+00
  0.00000000E+00  0.00000000E+00  0.00000000E+00
  0.00000000E+00  0.00000000E+00  0.00000000E+00
  0.00000000E+00  0.00000000E+00  0.00000000E+00
  0.00000000E+00  0.00000000E+00  0.00000000E+00
  0.00000000E+00  0.00000000E+00  0.00000000E+00
  0.00000000E+00  0.00000000E+00  0.00000000E+00
  0.00000000E+00  0.00000000E+00  0.00000000E+00
  0.00000000E+00  0.00000000E+00  0.00000000E+00
  0.00000000E+00  0.00000000E+00  0.00000000E+00
  0.00000000E+00  0.00000000E+00  0.00000000E+00
  0.00000000E+00  0.00000000E+00  0.00000000E+00
  0.00000000E+00  0.00000000E+00  0.00000000E+00
  0.00000000E+00  0.00000000E+00  0.00000000E+00
  0.00000000E+00  0.00000000E+00  0.00000000E+00
  0.00000000E+00  0.00000000E+00  0.00000000E+00
  0.00000000E+00  0.00000000E+00  0.00000000E+00
  0.00000000E+00  0.00000000E+00  0.00000000E+00
  0.00000000E+00  0.00000000E+00  0.00000000E+00
  0.00000000E+00  0.00000000E+00  0.00000000E+00
  0.00000000E+00  0.00000000E+00  0.00000000E+00
  0.00000000E+00  0.00000000E+00  0.00000000E+00
  0.00000000E+00  0.00000000E+00  0.00000000E+00
  0.00000000E+00  0.00000000E+00  0.00000000E+00
  0.00000000E+00  0.00000000E+00  0.00000000E+00
  0.00000000E+00  0.00000000E+00  0.00000000E+00
  0.00000000E+00  0.00000000E+00  0.00000000E+00
  0.00000000E+00  0.00000000E+00  0.00000000E+00
  0.00000000E+00  0.00000000E+00  0.00000000E+00
  0.00000000E+00  0.00000000E+00  0.00000000E+00
  0.00000000E+00  0.00000000E+00  0.00000000E+00
  0.00000000E+00  0.00000000E+00  0.00000000E+00
  0.00000000E+00  0.00000000E+00  0.00000000E+00
  0.00000000E+00  0.00000000E+00  0.00000000E+00
  0.00000000E+00  0.00000000E+00  0.00000000E+00
  0.00000000E+00  0.00000000E+00  0.00000000E+00
  0.00000000E+00  0.00000000E+00  0.00000000E+00
  0.00000000E+00  0.00000000E+00  0.00000000E+00
  0.00000000E+00  0.00000000E+00  0.00000000E+00
  0.00000000E+00  0.00000000E+00  0.00000000E+00
  0.00000000E+00  0.00000000E+00  0.00000000E+00
  0.00000000E+00  0.00000000E+00  0.00000000E+00
  0.00000000E+00  0.00000000E+00  0.00000000E+00
  0.00000000E+00  0.00000000E+00  0.00000000E+00
  0.00000000E+00  0.00000000E+00  0.00000000E+00
  0.00000000E+00  0.00000000E+00  0.00000000E+00
