Ag In Se                                
   1.00000000000000     
    15.1011199803776375    0.0000000000000000    0.0000000000000009
    -4.5609416166787708   14.3958895602532451    0.0000000000000009
     0.0000000000000000    0.0000000000000000   35.6840018030261916
   Ag   In   Se
    16    16    32
Selective dynamics
Direct
  0.2336621556105669  0.5234827512138267  0.5805342821360355   T   T   T
  0.0000000000000000  0.2500000000000000  0.4687500000000000   F   F   F
  0.2653557920183260  0.2486426869239935  0.5405491340268043   T   T   T
  0.0000000000000000  0.0000000000000000  0.4062500000000000   F   F   F
  0.2500000000000000  0.2500000000000000  0.4062500000000000   F   F   F
  0.4996103078857743  0.0016653313181720  0.5309215985473656   T   T   T
  0.9747788754990125  0.2581065332640620  0.5774964324266989   T   T   T
  0.2500000000000000  0.0000000000000000  0.4687500000000000   F   F   F
  0.0539703880317575  0.4352160926697479  0.5930917679050154   T   T   T
  0.3114321549999985  0.1864321549999985  0.4682160775000028   F   F   F
  0.3114321549999985  0.4364321549999985  0.4067839224999972   F   F   F
  0.0708615558100050  0.1867366325368423  0.5318685443263149   T   T   T
  0.0635678450000015  0.4385678450000015  0.4692839224999972   F   F   F
  0.3128007677024343  0.1906586643537338  0.6052199111710763   T   T   T
  0.0635678450000015  0.1885678450000015  0.4057160775000028   F   F   F
  0.3135678450000015  0.4385678450000015  0.5307160775000028   F   F   F
  0.2336145715817963  0.0234529238514227  0.5805278061866375   T   T   T
  0.0000000000000000  0.7500000000000000  0.4687500000000000   F   F   F
  0.2653503833066821  0.7487033994363159  0.5405215052674563   T   T   T
  0.0000000000000000  0.5000000000000000  0.4062500000000000   F   F   F
  0.2500000000000000  0.7500000000000000  0.4062500000000000   F   F   F
  0.4996154984497068  0.5016481949419074  0.5309303559269622   T   T   T
  0.9748150775202546  0.7580904340633978  0.5775260523682633   T   T   T
  0.2500000000000000  0.5000000000000000  0.4687500000000000   F   F   F
  0.0538954100681224  0.9352844790226271  0.5930995179013578   T   T   T
  0.3114321549999985  0.6864321549999985  0.4682160775000028   F   F   F
  0.3114321549999985  0.9364321549999985  0.4067839224999972   F   F   F
  0.0708686032048149  0.6867376571916921  0.5318856009839905   T   T   T
  0.0635678450000015  0.9385678450000015  0.4692839224999972   F   F   F
  0.3128041870598182  0.6906825945295054  0.6052041682250362   T   T   T
  0.0635678450000015  0.6885678450000015  0.4057160775000028   F   F   F
  0.3135678450000015  0.9385678450000015  0.5307160775000028   F   F   F
  0.7336371081591935  0.5234930762159564  0.5805214725706591   T   T   T
  0.5000000000000000  0.2500000000000000  0.4687500000000000   F   F   F
  0.7654059849535955  0.2485583073203159  0.5404911376762200   T   T   T
  0.5000000000000000  0.0000000000000000  0.4062500000000000   F   F   F
  0.7500000000000000  0.2500000000000000  0.4062500000000000   F   F   F
  0.9995394410327663  0.0016888440416452  0.5309298872634045   T   T   T
  0.4749233871425318  0.2581520947802431  0.5775629107022198   T   T   T
  0.7500000000000000  0.0000000000000000  0.4687500000000000   F   F   F
  0.5539089620217723  0.4352591042663718  0.5931197875021894   T   T   T
  0.8114321549999985  0.1864321549999985  0.4682160775000028   F   F   F
  0.8114321549999985  0.4364321549999985  0.4067839224999972   F   F   F
  0.5707739492965516  0.1867718623449264  0.5318732475569448   T   T   T
  0.5635678450000015  0.4385678450000015  0.4692839224999972   F   F   F
  0.8128101063509376  0.1907391292809919  0.6051998427309755   T   T   T
  0.5635678450000015  0.1885678450000015  0.4057160775000028   F   F   F
  0.8135678450000015  0.4385678450000015  0.5307160775000028   F   F   F
  0.7335896642545947  0.0234631353229489  0.5805140160414624   T   T   T
  0.5000000000000000  0.7500000000000000  0.4687500000000000   F   F   F
  0.7653989322527934  0.7486162862174339  0.5404709449920730   T   T   T
  0.5000000000000000  0.5000000000000000  0.4062500000000000   F   F   F
  0.7500000000000000  0.7500000000000000  0.4062500000000000   F   F   F
  0.9995464212445100  0.5016713579396210  0.5309370941319855   T   T   T
  0.4749592151778330  0.7581378746537624  0.5775922373854314   T   T   T
  0.7500000000000000  0.5000000000000000  0.4687500000000000   F   F   F
  0.5538377527141662  0.9353264337911895  0.5931265535266519   T   T   T
  0.8114321549999985  0.6864321549999985  0.4682160775000028   F   F   F
  0.8114321549999985  0.9364321549999985  0.4067839224999972   F   F   F
  0.5707798501851187  0.6867680397553571  0.5318880131420229   T   T   T
  0.5635678450000015  0.9385678450000015  0.4692839224999972   F   F   F
  0.8128205274462701  0.6907588041610992  0.6051888946581130   T   T   T
  0.5635678450000015  0.6885678450000015  0.4057160775000028   F   F   F
  0.8135678450000015  0.9385678450000015  0.5307160775000028   F   F   F
 
  0.00000000E+00  0.00000000E+00  0.00000000E+00
  0.00000000E+00  0.00000000E+00  0.00000000E+00
  0.00000000E+00  0.00000000E+00  0.00000000E+00
  0.00000000E+00  0.00000000E+00  0.00000000E+00
  0.00000000E+00  0.00000000E+00  0.00000000E+00
  0.00000000E+00  0.00000000E+00  0.00000000E+00
  0.00000000E+00  0.00000000E+00  0.00000000E+00
  0.00000000E+00  0.00000000E+00  0.00000000E+00
  0.00000000E+00  0.00000000E+00  0.00000000E+00
  0.00000000E+00  0.00000000E+00  0.00000000E+00
  0.00000000E+00  0.00000000E+00  0.00000000E+00
  0.00000000E+00  0.00000000E+00  0.00000000E+00
  0.00000000E+00  0.00000000E+00  0.00000000E+00
  0.00000000E+00  0.00000000E+00  0.00000000E+00
  0.00000000E+00  0.00000000E+00  0.00000000E+00
  0.00000000E+00  0.00000000E+00  0.00000000E+00
  0.00000000E+00  0.00000000E+00  0.00000000E+00
  0.00000000E+00  0.00000000E+00  0.00000000E+00
  0.00000000E+00  0.00000000E+00  0.00000000E+00
  0.00000000E+00  0.00000000E+00  0.00000000E+00
  0.00000000E+00  0.00000000E+00  0.00000000E+00
  0.00000000E+00  0.00000000E+00  0.00000000E+00
  0.00000000E+00  0.00000000E+00  0.00000000E+00
  0.00000000E+00  0.00000000E+00  0.00000000E+00
  0.00000000E+00  0.00000000E+00  0.00000000E+00
  0.00000000E+00  0.00000000E+00  0.00000000E+00
  0.00000000E+00  0.00000000E+00  0.00000000E+00
  0.00000000E+00  0.00000000E+00  0.00000000E+00
  0.00000000E+00  0.00000000E+00  0.00000000E+00
  0.00000000E+00  0.00000000E+00  0.00000000E+00
  0.00000000E+00  0.00000000E+00  0.00000000E+00
  0.00000000E+00  0.00000000E+00  0.00000000E+00
  0.00000000E+00  0.00000000E+00  0.00000000E+00
  0.00000000E+00  0.00000000E+00  0.00000000E+00
  0.00000000E+00  0.00000000E+00  0.00000000E+00
  0.00000000E+00  0.00000000E+00  0.00000000E+00
  0.00000000E+00  0.00000000E+00  0.00000000E+00
  0.00000000E+00  0.00000000E+00  0.00000000E+00
  0.00000000E+00  0.00000000E+00  0.00000000E+00
  0.00000000E+00  0.00000000E+00  0.00000000E+00
  0.00000000E+00  0.00000000E+00  0.00000000E+00
  0.00000000E+00  0.00000000E+00  0.00000000E+00
  0.00000000E+00  0.00000000E+00  0.00000000E+00
  0.00000000E+00  0.00000000E+00  0.00000000E+00
  0.00000000E+00  0.00000000E+00  0.00000000E+00
  0.00000000E+00  0.00000000E+00  0.00000000E+00
  0.00000000E+00  0.00000000E+00  0.00000000E+00
  0.00000000E+00  0.00000000E+00  0.00000000E+00
  0.00000000E+00  0.00000000E+00  0.00000000E+00
  0.00000000E+00  0.00000000E+00  0.00000000E+00
  0.00000000E+00  0.00000000E+00  0.00000000E+00
  0.00000000E+00  0.00000000E+00  0.00000000E+00
  0.00000000E+00  0.00000000E+00  0.00000000E+00
  0.00000000E+00  0.00000000E+00  0.00000000E+00
  0.00000000E+00  0.00000000E+00  0.00000000E+00
  0.00000000E+00  0.00000000E+00  0.00000000E+00
  0.00000000E+00  0.00000000E+00  0.00000000E+00
  0.00000000E+00  0.00000000E+00  0.00000000E+00
  0.00000000E+00  0.00000000E+00  0.00000000E+00
  0.00000000E+00  0.00000000E+00  0.00000000E+00
  0.00000000E+00  0.00000000E+00  0.00000000E+00
  0.00000000E+00  0.00000000E+00  0.00000000E+00
  0.00000000E+00  0.00000000E+00  0.00000000E+00
  0.00000000E+00  0.00000000E+00  0.00000000E+00
