Ag In Se
 1.0000000000000000
    15.1011199803776375    0.0000000000000000    0.0000000000000009
    -4.5609416166787708   14.3958895602532451    0.0000000000000009
     0.0000000000000000    0.0000000000000000   35.6840018030261916
Ag In Se
16 16 32
Selective dynamics
Cartesian
  1.1409859811242629  7.5359998731717353 20.7157863704607585   T   T   T
 -1.1402354041696929  3.5989723900633130 16.7268758451685287   F   F   F
  2.8731248742824205  3.5794326609224223 19.2889562732368560   T   T   T
 -0.0000000000000001  0.0000000000000013 14.4966257324793908   F   F   F
  2.6350445909247160  3.5989723900633104 14.4966257324793908   F   F   F
  7.5370797239018854  0.0239739257376642 18.9454072798296167   T   T   T
 -1.5580760562301690  3.7156731476492437 20.6073837359555760   T   T   T
  3.7752799950944085  0.0000000000000006 16.7268758451685287   F   F   F
 -1.1699818842506722  6.2653228049186174 21.1638877152826055   T   T   T
  3.8526681639759586  2.6838567138600147 16.7078233537158489   F   F   F
  2.7124327598062656  6.2828291039233291 14.5156782239320687   F   F   F
  0.2183939775873655  2.6882399388539620 18.9791980947130163   T   T   T
 -1.0403366817585744  6.3135742612982613 16.7459283366212013   F   F   F
  3.8540588861973575  2.7447010757417187 21.5966684014561032   T   T   T
  0.0998987224111179  2.7146018712349504 14.4775732410267164   F   F   F
  2.7349433133358314  6.3135742612982639 18.9380734664049903   F   F   F
 -1.1400673584842966 14.7335152618833334 20.7155552826708877   T   T   T
 -3.4207062125090784 10.7969171701899356 16.7268758451685287   F   F   F
  0.5922954821154156 10.7782514516713270 19.2879703685382466   T   T   T
 -2.2804708083393854  7.1979447801266234 14.4966257324793908   F   F   F
  0.3545737825853306 10.7969171701899320 14.4966257324793908   F   F   F
  5.2567654569029028  7.2216720124841096 18.9457197781791749   T   T   T
 -3.8379267459889270 10.9133861654610698 20.6084406940037148   T   T   T
  1.4948091867550231  7.1979447801266234 16.7268758451685287   F   F   F
 -3.4518968499776532 13.4642520674287418 21.1641642661660327   T   T   T
  1.5721973556365731  9.8818014939866377 16.7078233537158489   F   F   F
  0.4319619514668802 13.4807738840499525 14.5156782239320687   F   F   F
 -2.0619750805884256  9.8861994697986653 18.9798067445163419   T   T   T
 -3.3208074900979598 13.5115190414248829 16.7459283366212013   F   F   F
  1.5735305698495048  9.9429903520359417 21.5961066301410973   T   T   T
 -2.1805720859282678  9.9125466513615734 14.4775732410267164   F   F   F
  0.4544725049964460 13.5115190414248865 18.9380734664049903   F   F   F
  8.6911206350126857  7.5361485107621631 20.7153292739068853   T   T   T
  6.4103245860191258  3.5989723900633130 16.7268758451685287   F   F   F
 10.4248276844549093  3.5782179414667477 19.2868867313579742   T   T   T
  7.5505599901888187  0.0000000000000013 14.4966257324793908   F   F   F
 10.1856045811135338  3.5989723900633104 14.4966257324793908   F   F   F
 15.0864623050817439  0.0243124123080634 18.9457030543878702   T   T   T
  5.9944584182107095  3.7163290462043674 20.6097559468591349   T   T   T
 11.3258399852832277  0.0000000000000006 16.7268758451685287   F   F   F
  6.3794543310104554  6.2659419951134288 21.1648875666386331   T   T   T
 11.4032281541647773  2.6838567138600147 16.7078233537158489   F   F   F
 10.2629927499950853  6.2828291039233291 14.5156782239320687   F   F   F
  7.7674703302076580  2.6887471032803427 18.9793659248035205   T   T   T
  6.5102233084302448  6.3135742612982613 16.7459283366212013   F   F   F
 11.4043929046022292  2.7458594399479948 21.5959522792031784   T   T   T
  7.6504587125999368  2.7146018712349504 14.4775732410267164   F   F   F
 10.2855033035246493  6.3135742612982639 18.9380734664049903   F   F   F
  6.4100699292425762 14.7336622650996745 20.7150631951055253   T   T   T
  4.1298537776797408 10.7969171701899356 16.7268758451685287   F   F   F
  8.1439859340698035 10.7769973793930838 19.2861661755803127   T   T   T
  5.2700891818494338  7.1979447801266234 14.4966257324793926   F   F   F
  7.9051337727741497 10.7969171701899320 14.4966257324793926   F   F   F
 12.8061766588478392  7.2220054644410858 18.9459602242993626   T   T   T
  3.7145935104977212 10.9140691149606752 20.6108024402757870   T   T   T
  9.0453691769438418  7.1979447801266234 16.7268758451685287   F   F   F
  4.0976010963414140 13.4648560436434757 21.1651290054677403   T   T   T
  9.1227573458253914  9.8818014939866377 16.7078233537158489   F   F   F
  7.9825219416556994 13.4807738840499525 14.5156782239320705   F   F   F
  5.4871060665023093  9.8866368538297671 18.9798928199680326   T   T   T
  4.2297525000908589 13.5115190414248829 16.7459283366212013   F   F   F
  9.1239897304943707  9.9440874574757814 21.5955616081514599   T   T   T
  5.3699879042605518  9.9125466513615734 14.4775732410267182   F   F   F
  8.0050324951852652 13.5115190414248865 18.9380734664049903   F   F   F
