Ag Pt                                   
   1.00000000000000     
     8.5458042134173819    0.0000000000000000    0.0000000000000005
    -4.2729021067086901    7.4008835445875452    0.0000000000000005
     0.0000000000000000    0.0000000000000000   43.0737851649507064
   Ag   Pt
    27    27
Selective dynamics
Direct
  0.0000686279502631  0.0000666002774423  0.6477345873253881   T   T   T
  0.1111111111111143  0.2222222222222214  0.4246635094395899   F   F   F
  0.2222222222222214  0.1111111111111143  0.5357746205507041   F   F   F
  0.1111111111111143  0.2222222222222214  0.5913301761062542   F   F   F
  0.2222222222222214  0.1111111111111143  0.3691079538840327   F   F   F
  0.0000000000000000  0.0000000000000000  0.4802190649951470   F   F   F
  0.9999772805685154  0.3333174398862866  0.6477375879389271   T   T   T
  0.1111111111111143  0.5555555555555571  0.4246635094395899   F   F   F
  0.2222222222222214  0.4444444444444429  0.5357746205507041   F   F   F
  0.1111111111111143  0.5555555555555571  0.5913301761062542   F   F   F
  0.2222222222222214  0.4444444444444429  0.3691079538840327   F   F   F
  0.0000000000000000  0.3333333333333357  0.4802190649951470   F   F   F
  0.9999845599282651  0.6666511435890570  0.6477303337503670   T   T   T
  0.1111111111111143  0.8888888888888857  0.4246635094395899   F   F   F
  0.2222222222222214  0.7777777777777786  0.5357746205507041   F   F   F
  0.1111111111111143  0.8888888888888857  0.5913301761062542   F   F   F
  0.2222222222222214  0.7777777777777786  0.3691079538840327   F   F   F
  0.0000000000000000  0.6666666666666643  0.4802190649951470   F   F   F
  0.3335016225147953  0.0001076215371612  0.6476755091900159   T   T   T
  0.4444444444444429  0.2222222222222214  0.4246635094395899   F   F   F
  0.5555555555555571  0.1111111111111143  0.5357746205507041   F   F   F
  0.4444444444444429  0.2222222222222214  0.5913301761062542   F   F   F
  0.5555555555555571  0.1111111111111143  0.3691079538840327   F   F   F
  0.3333333333333357  0.0000000000000000  0.4802190649951470   F   F   F
  0.3334433504485048  0.3333865504273703  0.6476868090730790   T   T   T
  0.4444444444444429  0.5555555555555571  0.4246635094395899   F   F   F
  0.5555555555555571  0.4444444444444429  0.5357746205507041   F   F   F
  0.4444444444444429  0.5555555555555571  0.5913301761062542   F   F   F
  0.5555555555555571  0.4444444444444429  0.3691079538840327   F   F   F
  0.3333333333333357  0.3333333333333357  0.4802190649951470   F   F   F
  0.3334393905461681  0.6667114093307802  0.6476709203861688   T   T   T
  0.4444444444444429  0.8888888888888857  0.4246635094395899   F   F   F
  0.5555555555555571  0.7777777777777786  0.5357746205507041   F   F   F
  0.4444444444444429  0.8888888888888857  0.5913301761062542   F   F   F
  0.5555555555555571  0.7777777777777786  0.3691079538840327   F   F   F
  0.3333333333333357  0.6666666666666643  0.4802190649951470   F   F   F
  0.6668258367193971  0.0000995670823940  0.6476590032777452   T   T   T
  0.7777777777777786  0.2222222222222214  0.4246635094395899   F   F   F
  0.8888888888888857  0.1111111111111143  0.5357746205507041   F   F   F
  0.7777777777777786  0.2222222222222214  0.5913301761062542   F   F   F
  0.8888888888888857  0.1111111111111143  0.3691079538840327   F   F   F
  0.6666666666666643  0.0000000000000000  0.4802190649951470   F   F   F
  0.6667800918760705  0.3333830098685411  0.6476703586822765   T   T   T
  0.7777777777777786  0.5555555555555571  0.4246635094395899   F   F   F
  0.8888888888888857  0.4444444444444429  0.5357746205507041   F   F   F
  0.7777777777777786  0.5555555555555571  0.5913301761062542   F   F   F
  0.8888888888888857  0.4444444444444429  0.3691079538840327   F   F   F
  0.6666666666666643  0.3333333333333357  0.4802190649951470   F   F   F
  0.6667596935470073  0.6667079581607993  0.6476534827358691   T   T   T
  0.7777777777777786  0.8888888888888857  0.4246635094395899   F   F   F
  0.8888888888888857  0.7777777777777786  0.5357746205507041   F   F   F
  0.7777777777777786  0.8888888888888857  0.5913301761062542   F   F   F
  0.8888888888888857  0.7777777777777786  0.3691079538840327   F   F   F
  0.6666666666666643  0.6666666666666643  0.4802190649951470   F   F   F
 
  0.00000000E+00  0.00000000E+00  0.00000000E+00
  0.00000000E+00  0.00000000E+00  0.00000000E+00
  0.00000000E+00  0.00000000E+00  0.00000000E+00
  0.00000000E+00  0.00000000E+00  0.00000000E+00
  0.00000000E+00  0.00000000E+00  0.00000000E+00
  0.00000000E+00  0.00000000E+00  0.00000000E+00
  0.00000000E+00  0.00000000E+00  0.00000000E+00
  0.00000000E+00  0.00000000E+00  0.00000000E+00
  0.00000000E+00  0.00000000E+00  0.00000000E+00
  0.00000000E+00  0.00000000E+00  0.00000000E+00
  0.00000000E+00  0.00000000E+00  0.00000000E+00
  0.00000000E+00  0.00000000E+00  0.00000000E+00
  0.00000000E+00  0.00000000E+00  0.00000000E+00
  0.00000000E+00  0.00000000E+00  0.00000000E+00
  0.00000000E+00  0.00000000E+00  0.00000000E+00
  0.00000000E+00  0.00000000E+00  0.00000000E+00
  0.00000000E+00  0.00000000E+00  0.00000000E+00
  0.00000000E+00  0.00000000E+00  0.00000000E+00
  0.00000000E+00  0.00000000E+00  0.00000000E+00
  0.00000000E+00  0.00000000E+00  0.00000000E+00
  0.00000000E+00  0.00000000E+00  0.00000000E+00
  0.00000000E+00  0.00000000E+00  0.00000000E+00
  0.00000000E+00  0.00000000E+00  0.00000000E+00
  0.00000000E+00  0.00000000E+00  0.00000000E+00
  0.00000000E+00  0.00000000E+00  0.00000000E+00
  0.00000000E+00  0.00000000E+00  0.00000000E+00
  0.00000000E+00  0.00000000E+00  0.00000000E+00
  0.00000000E+00  0.00000000E+00  0.00000000E+00
  0.00000000E+00  0.00000000E+00  0.00000000E+00
  0.00000000E+00  0.00000000E+00  0.00000000E+00
  0.00000000E+00  0.00000000E+00  0.00000000E+00
  0.00000000E+00  0.00000000E+00  0.00000000E+00
  0.00000000E+00  0.00000000E+00  0.00000000E+00
  0.00000000E+00  0.00000000E+00  0.00000000E+00
  0.00000000E+00  0.00000000E+00  0.00000000E+00
  0.00000000E+00  0.00000000E+00  0.00000000E+00
  0.00000000E+00  0.00000000E+00  0.00000000E+00
  0.00000000E+00  0.00000000E+00  0.00000000E+00
  0.00000000E+00  0.00000000E+00  0.00000000E+00
  0.00000000E+00  0.00000000E+00  0.00000000E+00
  0.00000000E+00  0.00000000E+00  0.00000000E+00
  0.00000000E+00  0.00000000E+00  0.00000000E+00
  0.00000000E+00  0.00000000E+00  0.00000000E+00
  0.00000000E+00  0.00000000E+00  0.00000000E+00
  0.00000000E+00  0.00000000E+00  0.00000000E+00
  0.00000000E+00  0.00000000E+00  0.00000000E+00
  0.00000000E+00  0.00000000E+00  0.00000000E+00
  0.00000000E+00  0.00000000E+00  0.00000000E+00
  0.00000000E+00  0.00000000E+00  0.00000000E+00
  0.00000000E+00  0.00000000E+00  0.00000000E+00
  0.00000000E+00  0.00000000E+00  0.00000000E+00
  0.00000000E+00  0.00000000E+00  0.00000000E+00
  0.00000000E+00  0.00000000E+00  0.00000000E+00
  0.00000000E+00  0.00000000E+00  0.00000000E+00
