Ag Pt
 1.0000000000000000
     8.5458042134173819    0.0000000000000000    0.0000000000000005
    -4.2729021067086901    7.4008835445875452    0.0000000000000005
     0.0000000000000000    0.0000000000000000   43.0737851649507064
Ag Pt
27 27
Selective dynamics
Cartesian
  0.0003019045607289  0.0004929008973704 27.9003804583618482   T   T   T
  0.0000000000000001  1.6446407876861213 18.2918647729949022   F   F   F
  1.4243007022362302  0.8223203938430610 23.0778409024338700   F   F   F
  0.0000000000000003  1.6446407876861218 25.4708289671533556   F   F   F
  1.4243007022362308  0.8223203938430612 15.8988767082754183   F   F   F
 -0.0000000000000002  0.0000000000000008 20.6848528377143843   F   F   F
 -1.4244269469061588  2.4668435559784530 27.9005097061446001   T   T   T
 -1.4243007022362302  4.1116019692153030 18.2918647729949022   F   F   F
  0.0000000000000000  3.2892815753722431 23.0778409024338700   F   F   F
 -1.4243007022362297  4.1116019692153039 25.4708289671533556   F   F   F
  0.0000000000000007  3.2892815753722431 15.8988767082754183   F   F   F
 -1.4243007022362304  2.4669611815291828 20.6848528377143843   F   F   F
 -2.8486670237115126  4.9338074785687160 27.9001972407851433   T   T   T
 -2.8486014044724604  6.5785631507444853 18.2918647729949022   F   F   F
 -1.4243007022362302  5.7562427569014245 23.0778409024338700   F   F   F
 -2.8486014044724599  6.5785631507444853 25.4708289671533556   F   F   F
 -1.4243007022362295  5.7562427569014254 15.8988767082754183   F   F   F
 -2.8486014044724604  4.9339223630583646 20.6848528377143843   F   F   F
  2.8495797145756252  0.0007964944634296 27.8978357394509082   T   T   T
  2.8486014044724608  1.6446407876861213 18.2918647729949022   F   F   F
  4.2729021067086910  0.8223203938430610 23.0778409024338700   F   F   F
  2.8486014044724612  1.6446407876861218 25.4708289671533556   F   F   F
  4.2729021067086919  0.8223203938430612 15.8988767082754183   F   F   F
  2.8486014044724608  0.0000000000000008 20.6848528377143843   F   F   F
  1.4250134955293632  2.4673550350447431 27.8983224681861763   T   T   T
  1.4243007022362306  4.1116019692153030 18.2918647729949022   F   F   F
  2.8486014044724608  3.2892815753722431 23.0778409024338700   F   F   F
  1.4243007022362311  4.1116019692153039 25.4708289671533556   F   F   F
  2.8486014044724612  3.2892815753722431 15.8988767082754183   F   F   F
  1.4243007022362304  2.4669611815291828 20.6848528377143843   F   F   F
  0.0007151631525635  4.9342534983049608 27.8976380822997605   T   T   T
  0.0000000000000006  6.5785631507444853 18.2918647729949022   F   F   F
  1.4243007022362306  5.7562427569014245 23.0778409024338700   F   F   F
  0.0000000000000008  6.5785631507444853 25.4708289671533556   F   F   F
  1.4243007022362313  5.7562427569014254 15.8988767082754183   F   F   F
  0.0000000000000003  4.9339223630583646 20.6848528377143843   F   F   F
  5.6981376046560674  0.0007368843816948 27.8971247673317855   T   T   T
  5.6972028089449216  1.6446407876861213 18.2918647729949022   F   F   F
  7.1215035111811513  0.8223203938430610 23.0778409024338700   F   F   F
  5.6972028089449216  1.6446407876861218 25.4708289671533556   F   F   F
  7.1215035111811522  0.8223203938430612 15.8988767082754183   F   F   F
  5.6972028089449216  0.0000000000000008 20.6848528377143843   F   F   F
  4.2736591533692021  2.4673288317811557 27.8976138875870099   T   T   T
  4.2729021067086919  4.1116019692153030 18.2918647729949022   F   F   F
  5.6972028089449225  3.2892815753722431 23.0778409024338700   F   F   F
  4.2729021067086919  4.1116019692153039 25.4708289671533556   F   F   F
  5.6972028089449225  3.2892815753722431 15.8988767082754183   F   F   F
  4.2729021067086919  2.4669611815291828 20.6848528377143843   F   F   F
  2.8492199594661685  4.9342279565978151 27.8968869766969298   T   T   T
  2.8486014044724612  6.5785631507444853 18.2918647729949022   F   F   F
  4.2729021067086919  5.7562427569014245 23.0778409024338700   F   F   F
  2.8486014044724617  6.5785631507444853 25.4708289671533556   F   F   F
  4.2729021067086919  5.7562427569014254 15.8988767082754183   F   F   F
  2.8486014044724612  4.9339223630583646 20.6848528377143843   F   F   F
