Cd Au                                   
   1.00000000000000     
    11.9650397902858856    0.0000000000000000    0.0000000000000007
    -5.9825198951429464   10.3620284156792071    0.0000000000000007
     0.0000000000000000    0.0000000000000000   34.6386758199999960
   Cd   Au
    16    48
Selective dynamics
Direct
  0.3333333333333357  0.1666666666666643  0.4642857142857153   F   F   F
  0.1666666666666643  0.3333333333333357  0.3928571428571459   F   F   F
  0.4168385525000033  0.3336771049999996  0.3928571428571459   F   F   F
  0.1663228950000004  0.0831614474999967  0.3928571428571459   F   F   F
  0.4168385525000033  0.0831614474999967  0.3928571428571459   F   F   F
  0.0831614474999967  0.1663228950000004  0.4642857142857153   F   F   F
  0.3336771049999996  0.4168385525000033  0.4642857142857153   F   F   F
  0.0831614474999967  0.4168385525000033  0.4642857142857153   F   F   F
  0.3332725266382752  0.1667074104068433  0.6111081900247584   T   T   T
  0.1666666666666643  0.3333333333333357  0.5357142857142847   F   F   F
  0.4165006991386733  0.3330812087329562  0.5349117032436723   T   T   T
  0.1670391625233378  0.0834536499794325  0.5348832458536776   T   T   T
  0.4164733512195014  0.0835800602871544  0.5349410410371860   T   T   T
  0.0832365330124318  0.1664845230752405  0.6075680841379167   T   T   T
  0.3335296432371635  0.4167889859955238  0.6076004121283489   T   T   T
  0.0833562309591755  0.4165973514815065  0.6075057381964371   T   T   T
  0.3333333333333357  0.6666666666666643  0.4642857142857153   F   F   F
  0.1666666666666643  0.8333333333333357  0.3928571428571459   F   F   F
  0.4168385525000033  0.8336771049999996  0.3928571428571459   F   F   F
  0.1663228950000004  0.5831614474999967  0.3928571428571459   F   F   F
  0.4168385525000033  0.5831614474999967  0.3928571428571459   F   F   F
  0.0831614474999967  0.6663228950000004  0.4642857142857153   F   F   F
  0.3336771049999996  0.9168385525000033  0.4642857142857153   F   F   F
  0.0831614474999967  0.9168385525000033  0.4642857142857153   F   F   F
  0.3333619592118851  0.6666562041580448  0.6111683606900300   T   T   T
  0.1666666666666643  0.8333333333333357  0.5357142857142847   F   F   F
  0.4165452762627595  0.8331124761362503  0.5348916518510762   T   T   T
  0.1671182621098026  0.5835172296468585  0.5349339663262711   T   T   T
  0.4163964335716912  0.5833871805979101  0.5348941193721757   T   T   T
  0.0832867160036841  0.6666698899805539  0.6075268169876438   T   T   T
  0.3336353072162339  0.9168189872578694  0.6076151167717967   T   T   T
  0.0831936389620438  0.9166460198058175  0.6075561339487336   T   T   T
  0.8333333333333357  0.1666666666666643  0.4642857142857153   F   F   F
  0.6666666666666643  0.3333333333333357  0.3928571428571459   F   F   F
  0.9168385525000033  0.3336771049999996  0.3928571428571459   F   F   F
  0.6663228950000004  0.0831614474999967  0.3928571428571459   F   F   F
  0.9168385525000033  0.0831614474999967  0.3928571428571459   F   F   F
  0.5831614474999967  0.1663228950000004  0.4642857142857153   F   F   F
  0.8336771049999996  0.4168385525000033  0.4642857142857153   F   F   F
  0.5831614474999967  0.4168385525000033  0.4642857142857153   F   F   F
  0.8333256310452413  0.1667372544485985  0.6111813096741230   T   T   T
  0.6666666666666643  0.3333333333333357  0.5357142857142847   F   F   F
  0.9163716650986657  0.3330284129734409  0.5348811939064575   T   T   T
  0.6670151999349514  0.0833889254544076  0.5348517356702374   T   T   T
  0.9166940063649704  0.0836672857854381  0.5349202592189073   T   T   T
  0.5832419082136511  0.1663462635254334  0.6076125919362454   T   T   T
  0.8334012884418271  0.4166856328388064  0.6075253373278144   T   T   T
  0.5833729004900903  0.4167957522046706  0.6075425767191192   T   T   T
  0.8333333333333357  0.6666666666666643  0.4642857142857153   F   F   F
  0.6666666666666643  0.8333333333333357  0.3928571428571459   F   F   F
  0.9168385525000033  0.8336771049999996  0.3928571428571459   F   F   F
  0.6663228950000004  0.5831614474999967  0.3928571428571459   F   F   F
  0.9168385525000033  0.5831614474999967  0.3928571428571459   F   F   F
  0.5831614474999967  0.6663228950000004  0.4642857142857153   F   F   F
  0.8336771049999996  0.9168385525000033  0.4642857142857153   F   F   F
  0.5831614474999967  0.9168385525000033  0.4642857142857153   F   F   F
  0.8334125239105603  0.6666718337762276  0.6112589787991354   T   T   T
  0.6666666666666643  0.8333333333333357  0.5357142857142847   F   F   F
  0.9163630594381118  0.8330261609497853  0.5348818447262573   T   T   T
  0.6670529795228575  0.5835152359593678  0.5348898038031393   T   T   T
  0.9166287359830392  0.5834732301458914  0.5348893039097788   T   T   T
  0.5833044158318827  0.6665269450583224  0.6075671946165713   T   T   T
  0.8334382164553702  0.9167395536766989  0.6075546665300564   T   T   T
  0.5832411631638905  0.9167989719861396  0.6075997082485856   T   T   T
 
  0.00000000E+00  0.00000000E+00  0.00000000E+00
  0.00000000E+00  0.00000000E+00  0.00000000E+00
  0.00000000E+00  0.00000000E+00  0.00000000E+00
  0.00000000E+00  0.00000000E+00  0.00000000E+00
  0.00000000E+00  0.00000000E+00  0.00000000E+00
  0.00000000E+00  0.00000000E+00  0.00000000E+00
  0.00000000E+00  0.00000000E+00  0.00000000E+00
  0.00000000E+00  0.00000000E+00  0.00000000E+00
  0.00000000E+00  0.00000000E+00  0.00000000E+00
  0.00000000E+00  0.00000000E+00  0.00000000E+00
  0.00000000E+00  0.00000000E+00  0.00000000E+00
  0.00000000E+00  0.00000000E+00  0.00000000E+00
  0.00000000E+00  0.00000000E+00  0.00000000E+00
  0.00000000E+00  0.00000000E+00  0.00000000E+00
  0.00000000E+00  0.00000000E+00  0.00000000E+00
  0.00000000E+00  0.00000000E+00  0.00000000E+00
  0.00000000E+00  0.00000000E+00  0.00000000E+00
  0.00000000E+00  0.00000000E+00  0.00000000E+00
  0.00000000E+00  0.00000000E+00  0.00000000E+00
  0.00000000E+00  0.00000000E+00  0.00000000E+00
  0.00000000E+00  0.00000000E+00  0.00000000E+00
  0.00000000E+00  0.00000000E+00  0.00000000E+00
  0.00000000E+00  0.00000000E+00  0.00000000E+00
  0.00000000E+00  0.00000000E+00  0.00000000E+00
  0.00000000E+00  0.00000000E+00  0.00000000E+00
  0.00000000E+00  0.00000000E+00  0.00000000E+00
  0.00000000E+00  0.00000000E+00  0.00000000E+00
  0.00000000E+00  0.00000000E+00  0.00000000E+00
  0.00000000E+00  0.00000000E+00  0.00000000E+00
  0.00000000E+00  0.00000000E+00  0.00000000E+00
  0.00000000E+00  0.00000000E+00  0.00000000E+00
  0.00000000E+00  0.00000000E+00  0.00000000E+00
  0.00000000E+00  0.00000000E+00  0.00000000E+00
  0.00000000E+00  0.00000000E+00  0.00000000E+00
  0.00000000E+00  0.00000000E+00  0.00000000E+00
  0.00000000E+00  0.00000000E+00  0.00000000E+00
  0.00000000E+00  0.00000000E+00  0.00000000E+00
  0.00000000E+00  0.00000000E+00  0.00000000E+00
  0.00000000E+00  0.00000000E+00  0.00000000E+00
  0.00000000E+00  0.00000000E+00  0.00000000E+00
  0.00000000E+00  0.00000000E+00  0.00000000E+00
  0.00000000E+00  0.00000000E+00  0.00000000E+00
  0.00000000E+00  0.00000000E+00  0.00000000E+00
  0.00000000E+00  0.00000000E+00  0.00000000E+00
  0.00000000E+00  0.00000000E+00  0.00000000E+00
  0.00000000E+00  0.00000000E+00  0.00000000E+00
  0.00000000E+00  0.00000000E+00  0.00000000E+00
  0.00000000E+00  0.00000000E+00  0.00000000E+00
  0.00000000E+00  0.00000000E+00  0.00000000E+00
  0.00000000E+00  0.00000000E+00  0.00000000E+00
  0.00000000E+00  0.00000000E+00  0.00000000E+00
  0.00000000E+00  0.00000000E+00  0.00000000E+00
  0.00000000E+00  0.00000000E+00  0.00000000E+00
  0.00000000E+00  0.00000000E+00  0.00000000E+00
  0.00000000E+00  0.00000000E+00  0.00000000E+00
  0.00000000E+00  0.00000000E+00  0.00000000E+00
  0.00000000E+00  0.00000000E+00  0.00000000E+00
  0.00000000E+00  0.00000000E+00  0.00000000E+00
  0.00000000E+00  0.00000000E+00  0.00000000E+00
  0.00000000E+00  0.00000000E+00  0.00000000E+00
  0.00000000E+00  0.00000000E+00  0.00000000E+00
  0.00000000E+00  0.00000000E+00  0.00000000E+00
  0.00000000E+00  0.00000000E+00  0.00000000E+00
  0.00000000E+00  0.00000000E+00  0.00000000E+00
