Tl Sb Se                                
   1.00000000000000     
    13.9467218847082055    0.0000000000000000   -0.0000000000000009
    -6.9733609423541054   12.0782154516736888   -0.0000000000000037
     0.0000000000000000    0.0000000000000063   51.2435283030636342
   Tl   Sb   Se
    36    12    36
Selective dynamics
Direct
  0.7564437200000000  0.6183866000000009  0.5681396116666662   F   F   F
  0.0897770533333357  0.2850532666666652  0.4570285005555590   F   F   F
  0.4231103866666643  0.9517199333333366  0.3459173894444447   F   F   F
  0.3816133999999991  0.1183866000000009  0.5681396116666662   F   F   F
  0.7149467333333348  0.7850532666666652  0.4570285005555590   F   F   F
  0.0482800666666634  0.4517199333333366  0.3459173894444447   F   F   F
  0.8816133999999991  0.2435562800000000  0.5681396116666662   F   F   F
  0.2149467333333348  0.9102229466666643  0.4570285005555590   F   F   F
  0.5482800666666634  0.5768896133333357  0.3459173894444447   F   F   F
  0.0066469574359331  0.9934714736210140  0.6482248245160420   T   T   T
  0.3398901733333304  0.6601098266666696  0.5403241272222203   F   F   F
  0.6732235066666661  0.3267764933333339  0.4292130161111132   F   F   F
  0.4344384452914056  0.4636279901721281  0.5940415157268646   T   T   T
  0.7734465466666691  0.1268880133333354  0.4833893761111128   F   F   F
  0.1067798799999977  0.7935546799999997  0.3722782649999985   F   F   F
  0.5365264699773817  0.9512429682145722  0.5940398015889556   T   T   T
  0.8731119866666646  0.6268880133333354  0.4833893761111128   F   F   F
  0.2064453200000003  0.2935546799999997  0.3722782649999985   F   F   F
  0.0489131614309386  0.5656109391985282  0.5940484891424376   T   T   T
  0.3731119866666646  0.2265534533333309  0.4833893761111128   F   F   F
  0.7064453200000003  0.8932201200000023  0.3722782649999985   F   F   F
  0.0065568400000018  0.9934431599999982  0.5723526116666662   F   F   F
  0.3398901733333304  0.6601098266666696  0.4612415005555590   F   F   F
  0.6732235066666661  0.3267764933333339  0.3501303894444447   F   F   F
  0.0584610666666663  0.7693952733333305  0.5429714994444481   F   F   F
  0.3917944000000020  0.4360619400000019  0.4318603883333338   F   F   F
  0.7130158262820956  0.1096686244614062  0.6550725983156838   T   T   T
  0.2306047266666695  0.2693952733333305  0.5429714994444481   F   F   F
  0.5639380599999981  0.9360619400000019  0.4318603883333338   F   F   F
  0.8903089224837686  0.5836042434646700  0.6550480953380031   T   T   T
  0.7306047266666695  0.9415389333333337  0.5429714994444481   F   F   F
  0.0639380599999981  0.6082055999999980  0.4318603883333338   F   F   F
  0.4163224473335276  0.2869404960608648  0.6550534282813700   T   T   T
  0.0065568400000018  0.9934431599999982  0.3936062416666672   F   F   F
  0.3401125767996547  0.6601703865343609  0.6238170996458550   T   T   T
  0.6732235066666661  0.3267764933333339  0.5047173527777744   F   F   F
  0.0065568400000018  0.9934431599999982  0.4892742583333316   F   F   F
  0.3398901733333304  0.6601098266666696  0.3781631472222244   F   F   F
  0.6732550995768634  0.3268291648466786  0.6008115452253335   T   T   T
  0.1984770542186780  0.8677313077696027  0.6241640621337723   T   T   T
  0.5392686933333337  0.5588668666666692  0.5110821605555529   F   F   F
  0.8726020266666694  0.2255335333333335  0.3999710494444457   F   F   F
  0.6890541940333605  0.8015088927793954  0.6241726255756888   T   T   T
  0.0392686933333337  0.4607313066666663  0.5110821605555529   F   F   F
  0.3726020266666694  0.1273979733333306  0.3999710494444457   F   F   F
  0.1321508887685852  0.3109603241298160  0.6241651918508850   T   T   T
  0.4411331333333308  0.9607313066666663  0.5110821605555529   F   F   F
  0.7744664666666665  0.6273979733333306  0.3999710494444457   F   F   F
  0.1826486599999981  0.0065568400000018  0.5129798283333358   F   F   F
  0.5159819933333338  0.6732235066666661  0.4018687172222215   F   F   F
  0.8531440180342571  0.3560313758192351  0.6240836892874810   T   T   T
  0.5910844933333337  0.7197100066666664  0.5780740505555571   F   F   F
  0.9244178266666694  0.3863766733333307  0.4669629394444428   F   F   F
  0.2577511599999980  0.0530433400000021  0.3558518283333356   F   F   F
  0.3042896858256512  0.4454706382242009  0.6507857035975277   T   T   T
  0.5946526866666630  0.1124233133333306  0.5423118194444427   F   F   F
  0.9279860199999987  0.7790899800000020  0.4312007083333356   F   F   F
  0.2802899933333336  0.8517039666666690  0.5780740505555571   F   F   F
  0.6136233266666693  0.5183706333333333  0.4669629394444428   F   F   F
  0.9469566599999979  0.1850372999999976  0.3558518283333356   F   F   F
  0.1608765734146189  0.6954377426221683  0.6507338147852053   T   T   T
  0.5374411466666658  0.4053473133333370  0.5423118194444427   F   F   F
  0.8707744800000015  0.0720139800000013  0.4312007083333356   F   F   F
  0.1482960333333310  0.4089155066666663  0.5780740505555571   F   F   F
  0.4816293666666667  0.0755821733333306  0.4669629394444428   F   F   F
  0.8149627000000024  0.7422488400000020  0.3558518283333356   F   F   F
  0.9934431599999982  0.1564212999999981  0.5129798283333358   F   F   F
  0.3267764933333339  0.8230879666666695  0.4018687172222215   F   F   F
  0.6439721913385199  0.4774731361799311  0.6240810486312469   T   T   T
  0.8435787000000019  0.8173513400000019  0.5129798283333358   F   F   F
  0.1769120333333305  0.4840180066666662  0.4018687172222215   F   F   F
  0.5225818865846890  0.1468847510708713  0.6240679714700903   T   T   T
  0.5544224637165343  0.8390494166349214  0.6507896377554090   T   T   T
  0.8875766866666694  0.4625588533333342  0.5423118194444427   F   F   F
  0.2209100199999980  0.1292255199999985  0.4312007083333356   F   F   F
  0.1982508533333345  0.1697551866666700  0.6113772638888904   F   F   F
  0.5315841866666702  0.8364218533333343  0.5002661527777761   F   F   F
  0.8649175199999988  0.5030885199999986  0.3891550416666689   F   F   F
  0.8302448133333300  0.0088251466666662  0.6113772638888904   F   F   F
  0.1635781466666657  0.6754918133333305  0.5002661527777761   F   F   F
  0.4969114800000014  0.3421584800000019  0.3891550416666689   F   F   F
  0.9911748533333338  0.8017491466666655  0.6113772638888904   F   F   F
  0.3245081866666695  0.4684158133333369  0.5002661527777761   F   F   F
  0.6578415199999981  0.1350824800000012  0.3891550416666689   F   F   F
 
  0.00000000E+00  0.00000000E+00  0.00000000E+00
  0.00000000E+00  0.00000000E+00  0.00000000E+00
  0.00000000E+00  0.00000000E+00  0.00000000E+00
  0.00000000E+00  0.00000000E+00  0.00000000E+00
  0.00000000E+00  0.00000000E+00  0.00000000E+00
  0.00000000E+00  0.00000000E+00  0.00000000E+00
  0.00000000E+00  0.00000000E+00  0.00000000E+00
  0.00000000E+00  0.00000000E+00  0.00000000E+00
  0.00000000E+00  0.00000000E+00  0.00000000E+00
  0.00000000E+00  0.00000000E+00  0.00000000E+00
  0.00000000E+00  0.00000000E+00  0.00000000E+00
  0.00000000E+00  0.00000000E+00  0.00000000E+00
  0.00000000E+00  0.00000000E+00  0.00000000E+00
  0.00000000E+00  0.00000000E+00  0.00000000E+00
  0.00000000E+00  0.00000000E+00  0.00000000E+00
  0.00000000E+00  0.00000000E+00  0.00000000E+00
  0.00000000E+00  0.00000000E+00  0.00000000E+00
  0.00000000E+00  0.00000000E+00  0.00000000E+00
  0.00000000E+00  0.00000000E+00  0.00000000E+00
  0.00000000E+00  0.00000000E+00  0.00000000E+00
  0.00000000E+00  0.00000000E+00  0.00000000E+00
  0.00000000E+00  0.00000000E+00  0.00000000E+00
  0.00000000E+00  0.00000000E+00  0.00000000E+00
  0.00000000E+00  0.00000000E+00  0.00000000E+00
  0.00000000E+00  0.00000000E+00  0.00000000E+00
  0.00000000E+00  0.00000000E+00  0.00000000E+00
  0.00000000E+00  0.00000000E+00  0.00000000E+00
  0.00000000E+00  0.00000000E+00  0.00000000E+00
  0.00000000E+00  0.00000000E+00  0.00000000E+00
  0.00000000E+00  0.00000000E+00  0.00000000E+00
  0.00000000E+00  0.00000000E+00  0.00000000E+00
  0.00000000E+00  0.00000000E+00  0.00000000E+00
  0.00000000E+00  0.00000000E+00  0.00000000E+00
  0.00000000E+00  0.00000000E+00  0.00000000E+00
  0.00000000E+00  0.00000000E+00  0.00000000E+00
  0.00000000E+00  0.00000000E+00  0.00000000E+00
  0.00000000E+00  0.00000000E+00  0.00000000E+00
  0.00000000E+00  0.00000000E+00  0.00000000E+00
  0.00000000E+00  0.00000000E+00  0.00000000E+00
  0.00000000E+00  0.00000000E+00  0.00000000E+00
  0.00000000E+00  0.00000000E+00  0.00000000E+00
  0.00000000E+00  0.00000000E+00  0.00000000E+00
  0.00000000E+00  0.00000000E+00  0.00000000E+00
  0.00000000E+00  0.00000000E+00  0.00000000E+00
  0.00000000E+00  0.00000000E+00  0.00000000E+00
  0.00000000E+00  0.00000000E+00  0.00000000E+00
  0.00000000E+00  0.00000000E+00  0.00000000E+00
  0.00000000E+00  0.00000000E+00  0.00000000E+00
  0.00000000E+00  0.00000000E+00  0.00000000E+00
  0.00000000E+00  0.00000000E+00  0.00000000E+00
  0.00000000E+00  0.00000000E+00  0.00000000E+00
  0.00000000E+00  0.00000000E+00  0.00000000E+00
  0.00000000E+00  0.00000000E+00  0.00000000E+00
  0.00000000E+00  0.00000000E+00  0.00000000E+00
  0.00000000E+00  0.00000000E+00  0.00000000E+00
  0.00000000E+00  0.00000000E+00  0.00000000E+00
  0.00000000E+00  0.00000000E+00  0.00000000E+00
  0.00000000E+00  0.00000000E+00  0.00000000E+00
  0.00000000E+00  0.00000000E+00  0.00000000E+00
  0.00000000E+00  0.00000000E+00  0.00000000E+00
  0.00000000E+00  0.00000000E+00  0.00000000E+00
  0.00000000E+00  0.00000000E+00  0.00000000E+00
  0.00000000E+00  0.00000000E+00  0.00000000E+00
  0.00000000E+00  0.00000000E+00  0.00000000E+00
  0.00000000E+00  0.00000000E+00  0.00000000E+00
  0.00000000E+00  0.00000000E+00  0.00000000E+00
  0.00000000E+00  0.00000000E+00  0.00000000E+00
  0.00000000E+00  0.00000000E+00  0.00000000E+00
  0.00000000E+00  0.00000000E+00  0.00000000E+00
  0.00000000E+00  0.00000000E+00  0.00000000E+00
  0.00000000E+00  0.00000000E+00  0.00000000E+00
  0.00000000E+00  0.00000000E+00  0.00000000E+00
  0.00000000E+00  0.00000000E+00  0.00000000E+00
  0.00000000E+00  0.00000000E+00  0.00000000E+00
  0.00000000E+00  0.00000000E+00  0.00000000E+00
  0.00000000E+00  0.00000000E+00  0.00000000E+00
  0.00000000E+00  0.00000000E+00  0.00000000E+00
  0.00000000E+00  0.00000000E+00  0.00000000E+00
  0.00000000E+00  0.00000000E+00  0.00000000E+00
  0.00000000E+00  0.00000000E+00  0.00000000E+00
  0.00000000E+00  0.00000000E+00  0.00000000E+00
  0.00000000E+00  0.00000000E+00  0.00000000E+00
  0.00000000E+00  0.00000000E+00  0.00000000E+00
  0.00000000E+00  0.00000000E+00  0.00000000E+00
