Pd Se Te                                
   1.00000000000000     
     8.1685753826711558    0.0000000000000000    0.0000000000000005
    -2.0421438456677867   17.7067390056748870    0.0254819193495702
     0.0000000000000000    0.0000000000000000   30.9042557629933086
   Pd   Se   Te
    20     8    32
Selective dynamics
Direct
  0.0028964438351480  0.0116696594906571  0.5801089235768018   T   T   T
  0.3014854149410766  0.2058283583451086  0.5794464851169749   T   T   T
  0.1023768634655795  0.4095231778418977  0.5796466808649257   T   T   T
  0.4033166117672593  0.6131887785856804  0.5802388544914479   T   T   T
  0.2043092282187331  0.8172644149609596  0.5802433904219910   T   T   T
  0.0030252175000030  0.0121008699999976  0.4130710494299024   F   F   F
  0.3015607150000008  0.2062428600000032  0.4128569677632328   F   F   F
  0.1023621074999994  0.4094484299999976  0.4139641344299037   F   F   F
  0.4032086799999988  0.6128347200000022  0.4140533360965719   F   F   F
  0.2041695750000017  0.8166782999999995  0.4140868027632365   F   F   F
  0.0354914713873171  0.1421430540335322  0.5401220296175211   T   T   T
  0.2369015499999989  0.9476062000000027  0.5393603594299066   F   F   F
  0.0355944499999978  0.1423777999999984  0.3723346194298998   F   F   F
  0.2369015499999989  0.9476062000000027  0.3726936927632352   F   F   F
  0.3354326425000025  0.3417305700000028  0.5354545860965700   F   F   F
  0.1361437824999996  0.5445751299999984  0.5362569344299004   F   F   F
  0.4371014350000024  0.7484057400000026  0.5359636627632369   F   F   F
  0.2685519027982721  0.0739032541720022  0.6252425635970766   T   T   T
  0.0682679736886698  0.2732162093285311  0.6232285213452897   T   T   T
  0.3693969449022703  0.4777211423751595  0.6246491374399383   T   T   T
  0.1708267099414513  0.6831732690939489  0.6240428680985417   T   T   T
  0.4705214217497868  0.8822023721307204  0.6257221670946080   T   T   T
  0.3354326425000025  0.3417305700000028  0.3687879194299057   F   F   F
  0.1361437824999996  0.5445751299999984  0.3695902677632361   F   F   F
  0.4371014350000024  0.7484057400000026  0.3692969960965726   F   F   F
  0.2687737899999973  0.0750951599999965  0.4590819127632386   F   F   F
  0.0684404049999969  0.2737616200000019  0.4573210827632366   F   F   F
  0.3694100275000025  0.4776401100000029  0.4586271310965699   F   F   F
  0.1703886674999993  0.6815546699999970  0.4583546760965689   F   F   F
  0.4703487425000006  0.8813949700000023  0.4596785310965714   F   F   F
  0.5029744538600980  0.0116513245813650  0.5800820420177999   T   T   T
  0.8014111834673301  0.2057978054193867  0.5794612581758329   T   T   T
  0.6023725617776705  0.4094990339349920  0.5796881762167985   T   T   T
  0.9033168672374430  0.6131741821593693  0.5802643228388433   T   T   T
  0.7043120048279476  0.8172355668196545  0.5802824093137957   T   T   T
  0.5030252175000030  0.0121008699999976  0.4130710494299024   F   F   F
  0.8015607150000008  0.2062428600000032  0.4128569677632328   F   F   F
  0.6023621074999994  0.4094484299999976  0.4139641344299037   F   F   F
  0.9032086799999988  0.6128347200000022  0.4140533360965719   F   F   F
  0.7041695750000017  0.8166782999999995  0.4140868027632365   F   F   F
  0.5355728925956385  0.1421613273167210  0.5400365851633069   T   T   T
  0.7369015499999989  0.9476062000000027  0.5393603594299066   F   F   F
  0.5355944499999978  0.1423777999999984  0.3723346194298998   F   F   F
  0.7369015499999989  0.9476062000000027  0.3726936927632352   F   F   F
  0.8354326425000025  0.3417305700000028  0.5354545860965700   F   F   F
  0.6361437824999996  0.5445751299999984  0.5362569344299004   F   F   F
  0.9371014350000024  0.7484057400000026  0.5359636627632369   F   F   F
  0.7684683309845255  0.0738863417553830  0.6252003380562030   T   T   T
  0.5682494695877196  0.2731866590677257  0.6231884097587681   T   T   T
  0.8694807581898871  0.4776089992058488  0.6245433883503679   T   T   T
  0.6707928541001991  0.6830976512476283  0.6239506191212811   T   T   T
  0.9705134689904469  0.8821674167251174  0.6256250336602420   T   T   T
  0.8354326425000025  0.3417305700000028  0.3687879194299057   F   F   F
  0.6361437824999996  0.5445751299999984  0.3695902677632361   F   F   F
  0.9371014350000024  0.7484057400000026  0.3692969960965726   F   F   F
  0.7687737899999973  0.0750951599999965  0.4590819127632386   F   F   F
  0.5684404049999969  0.2737616200000019  0.4573210827632366   F   F   F
  0.8694100275000025  0.4776401100000029  0.4586271310965699   F   F   F
  0.6703886674999993  0.6815546699999970  0.4583546760965689   F   F   F
  0.9703487425000006  0.8813949700000023  0.4596785310965714   F   F   F
 
  0.00000000E+00  0.00000000E+00  0.00000000E+00
  0.00000000E+00  0.00000000E+00  0.00000000E+00
  0.00000000E+00  0.00000000E+00  0.00000000E+00
  0.00000000E+00  0.00000000E+00  0.00000000E+00
  0.00000000E+00  0.00000000E+00  0.00000000E+00
  0.00000000E+00  0.00000000E+00  0.00000000E+00
  0.00000000E+00  0.00000000E+00  0.00000000E+00
  0.00000000E+00  0.00000000E+00  0.00000000E+00
  0.00000000E+00  0.00000000E+00  0.00000000E+00
  0.00000000E+00  0.00000000E+00  0.00000000E+00
  0.00000000E+00  0.00000000E+00  0.00000000E+00
  0.00000000E+00  0.00000000E+00  0.00000000E+00
  0.00000000E+00  0.00000000E+00  0.00000000E+00
  0.00000000E+00  0.00000000E+00  0.00000000E+00
  0.00000000E+00  0.00000000E+00  0.00000000E+00
  0.00000000E+00  0.00000000E+00  0.00000000E+00
  0.00000000E+00  0.00000000E+00  0.00000000E+00
  0.00000000E+00  0.00000000E+00  0.00000000E+00
  0.00000000E+00  0.00000000E+00  0.00000000E+00
  0.00000000E+00  0.00000000E+00  0.00000000E+00
  0.00000000E+00  0.00000000E+00  0.00000000E+00
  0.00000000E+00  0.00000000E+00  0.00000000E+00
  0.00000000E+00  0.00000000E+00  0.00000000E+00
  0.00000000E+00  0.00000000E+00  0.00000000E+00
  0.00000000E+00  0.00000000E+00  0.00000000E+00
  0.00000000E+00  0.00000000E+00  0.00000000E+00
  0.00000000E+00  0.00000000E+00  0.00000000E+00
  0.00000000E+00  0.00000000E+00  0.00000000E+00
  0.00000000E+00  0.00000000E+00  0.00000000E+00
  0.00000000E+00  0.00000000E+00  0.00000000E+00
  0.00000000E+00  0.00000000E+00  0.00000000E+00
  0.00000000E+00  0.00000000E+00  0.00000000E+00
  0.00000000E+00  0.00000000E+00  0.00000000E+00
  0.00000000E+00  0.00000000E+00  0.00000000E+00
  0.00000000E+00  0.00000000E+00  0.00000000E+00
  0.00000000E+00  0.00000000E+00  0.00000000E+00
  0.00000000E+00  0.00000000E+00  0.00000000E+00
  0.00000000E+00  0.00000000E+00  0.00000000E+00
  0.00000000E+00  0.00000000E+00  0.00000000E+00
  0.00000000E+00  0.00000000E+00  0.00000000E+00
  0.00000000E+00  0.00000000E+00  0.00000000E+00
  0.00000000E+00  0.00000000E+00  0.00000000E+00
  0.00000000E+00  0.00000000E+00  0.00000000E+00
  0.00000000E+00  0.00000000E+00  0.00000000E+00
  0.00000000E+00  0.00000000E+00  0.00000000E+00
  0.00000000E+00  0.00000000E+00  0.00000000E+00
  0.00000000E+00  0.00000000E+00  0.00000000E+00
  0.00000000E+00  0.00000000E+00  0.00000000E+00
  0.00000000E+00  0.00000000E+00  0.00000000E+00
  0.00000000E+00  0.00000000E+00  0.00000000E+00
  0.00000000E+00  0.00000000E+00  0.00000000E+00
  0.00000000E+00  0.00000000E+00  0.00000000E+00
  0.00000000E+00  0.00000000E+00  0.00000000E+00
  0.00000000E+00  0.00000000E+00  0.00000000E+00
  0.00000000E+00  0.00000000E+00  0.00000000E+00
  0.00000000E+00  0.00000000E+00  0.00000000E+00
  0.00000000E+00  0.00000000E+00  0.00000000E+00
  0.00000000E+00  0.00000000E+00  0.00000000E+00
  0.00000000E+00  0.00000000E+00  0.00000000E+00
  0.00000000E+00  0.00000000E+00  0.00000000E+00
