Pd Se Te
 1.0000000000000000
     8.1685753826711558    0.0000000000000000    0.0000000000000005
    -2.0421438456677867   17.7067390056748870    0.0254819193495702
     0.0000000000000000    0.0000000000000000   30.9042557629933086
Pd Se Te
20 8 32
Selective dynamics
Cartesian
 -0.0001713035007917  0.2066316148861021 17.9281319099341232   T   T   T
  2.0423752234636883  3.6445490211834244 17.9126072786497836   T   T   T
 -0.0000321106281256  7.2513200268210039 17.9239847142092863   T   T   T
  2.0423024558830845 10.8575736636252618 17.9474751898318594   T   T   T
 -0.0000561632157294 14.4710876943392659 17.9528156082968486   T   T   T
  0.0000000000000003  0.2142669468315959 12.7659617132631773   F   F   F
  2.0421438456677894  3.6518884938039395 12.7642927892138829   F   F   F
  0.0000000000000007  7.2499964862933393 12.8036870189989358   F   F   F
  2.0421438456677903 10.8513044406558397 12.8116264031586766   F   F   F
  0.0000000000000020 14.4607095096982530 12.8178549912503623   F   F   F
 -0.0003618035298124  2.5168899592413205 16.6956914243658474   T   T   T
  0.0000000000000022 16.7790156635593526 16.6926773210052737   F   F   F
  0.0000000000000010  2.5210465448021719 11.5103523678952691   F   F   F
  0.0000000000000022 16.7790156635593526 11.5419680271730556   F   F   F
  2.0421438456677894  6.0509340132505098 16.5565334290201278   F   F   F
  0.0000000000000011  9.6426496958914676 16.5864982758428958   F   F   F
  2.0421438456677907 13.2518251085289691 16.5826289284131825   F   F   F
  2.0427653864853084  1.3085856332937342 19.3245392960761500   T   T   T
 -0.0002947111188405  4.8377681107001891 19.2673756958581563   T   T   T
  2.0418714997157914  8.4588835855298434 19.3164899571986162   T   T   T
  0.0002727705254999 12.0967707715002302 19.3029889689341445   T   T   T
  2.0419055578444691 15.6209271535058960 19.3599580981628421   T   T   T
  2.0421438456677898  6.0509340132505081 11.4058241351879168   F   F   F
  0.0000000000000011  9.6426496958914676 11.4357889820106795   F   F   F
  2.0421438456677907 13.2518251085289691 11.4319196345809644   F   F   F
  2.0421438456677889  1.3296903987093915 14.1894984170098990   F   F   F
  0.0000000000000002  4.8474255551107372 14.1401436790459361   F   F   F
  2.0421438456677898  8.4574487664118401 14.1857013460173889   F   F   F
  0.0000000000000016 12.0681106597888697 14.1824774613856057   F   F   F
  2.0421438456677912 15.6066306947046414 14.2284825293061221   F   F   F
  4.0847910611263281  0.2063069634326909 17.9273006881508223   T   T   T
  6.1261189428794696  3.6440080285017888 17.9130630504918820   T   T   T
  4.0842697473764140  7.2508925169628764 17.9252664819436127   T   T   T
  6.1266220420482522 10.8573152085140823 17.9482618982086954   T   T   T
  4.0843131211157599 14.4705768878304379 17.9540207230028024   T   T   T
  4.0842876913355779  0.2142669468315959 12.7659617132631773   F   F   F
  6.1264315370033673  3.6518884938039395 12.7642927892138829   F   F   F
  4.0842876913355788  7.2499964862933393 12.8036870189989358   F   F   F
  6.1264315370033682 10.8513044406558397 12.8116264031586766   F   F   F
  4.0842876913355797 14.4607095096982530 12.8178549912503623   F   F   F
  4.0845536664108870  2.5172135194975405 16.6930512927377066   T   T   T
  4.0842876913355806 16.7790156635593526 16.6926773210052737   F   F   F
  4.0842876913355788  2.5210465448021719 11.5103523678952691   F   F   F
  4.0842876913355806 16.7790156635593526 11.5419680271730556   F   F   F
  6.1264315370033673  6.0509340132505098 16.5565334290201278   F   F   F
  4.0842876913355788  9.6426496958914676 16.5864982758428958   F   F   F
  6.1264315370033682 13.2518251085289691 16.5826289284131825   F   F   F
  6.1264049527479010  1.3082861695466650 19.3232339162004472   T   T   T
  4.0839021739565053  4.8372448719444847 19.2661353241317030   T   T   T
  6.1270728386923974  8.4568978956996084 19.3132190026646704   T   T   T
  4.0844383303891520 12.0954318260313425 19.3001361560590823   T   T   T
  6.1261996704322845 15.6203082072621200 19.3569553709332283   T   T   T
  6.1264315370033682  6.0509340132505081 11.4058241351879168   F   F   F
  4.0842876913355788  9.6426496958914676 11.4357889820106795   F   F   F
  6.1264315370033682 13.2518251085289691 11.4319196345809644   F   F   F
  6.1264315370033664  1.3296903987093915 14.1894984170098990   F   F   F
  4.0842876913355779  4.8474255551107372 14.1401436790459361   F   F   F
  6.1264315370033682  8.4574487664118401 14.1857013460173889   F   F   F
  4.0842876913355797 12.0681106597888697 14.1824774613856057   F   F   F
  6.1264315370033691 15.6066306947046414 14.2284825293061221   F   F   F
