Te Rh                                   
   1.00000000000000     
    11.9542345567388093    0.0000000000000000    0.0000000000000007
    -5.9771172783694029   10.3526708089336186    0.0000000000000007
     0.0000000000000000    0.0000000000000000   33.2811080399999994
   Te   Rh
    36    18
Selective dynamics
Direct
  0.2222222222222214  0.1111111111111143  0.4583114750000021   F   F   F
  0.1111111111111143  0.2222222222222214  0.3750218583333336   F   F   F
  0.0000000000000000  0.0000000000000000  0.4166666666666643   F   F   F
  0.2222222222222214  0.1111111111111143  0.6249781416666664   T   T   T
  0.1111111111111143  0.2222222222222214  0.5416885249999979   F   F   F
  0.0000000000000000  0.0000000000000000  0.5833333333333357   T   T   T
  0.2222222222222214  0.4444444444444429  0.4583114750000021   F   F   F
  0.1111111111111143  0.5555555555555571  0.3750218583333336   F   F   F
  0.0000000000000000  0.3333333333333357  0.4166666666666643   F   F   F
  0.2222222222222214  0.4444444444444429  0.6249781416666664   T   T   T
  0.1111111111111143  0.5555555555555571  0.5416885249999979   F   F   F
  0.0000000000000000  0.3333333333333357  0.5833333333333357   T   T   T
  0.2222222222222214  0.7777777777777786  0.4583114750000021   F   F   F
  0.1111111111111143  0.8888888888888857  0.3750218583333336   F   F   F
  0.0000000000000000  0.6666666666666643  0.4166666666666643   F   F   F
  0.2222222222222214  0.7777777777777786  0.6249781416666664   T   T   T
  0.1111111111111143  0.8888888888888857  0.5416885249999979   F   F   F
  0.0000000000000000  0.6666666666666643  0.5833333333333357   T   T   T
  0.5555555555555571  0.1111111111111143  0.4583114750000021   F   F   F
  0.4444444444444429  0.2222222222222214  0.3750218583333336   F   F   F
  0.3333333333333357  0.0000000000000000  0.4166666666666643   F   F   F
  0.5555555555555571  0.1111111111111143  0.6249781416666664   T   T   T
  0.4444444444444429  0.2222222222222214  0.5416885249999979   F   F   F
  0.3333333333333357  0.0000000000000000  0.5833333333333357   T   T   T
  0.5555555555555571  0.4444444444444429  0.4583114750000021   F   F   F
  0.4444444444444429  0.5555555555555571  0.3750218583333336   F   F   F
  0.3333333333333357  0.3333333333333357  0.4166666666666643   F   F   F
  0.5555555555555571  0.4444444444444429  0.6249781416666664   T   T   T
  0.4444444444444429  0.5555555555555571  0.5416885249999979   F   F   F
  0.3333333333333357  0.3333333333333357  0.5833333333333357   T   T   T
  0.5555555555555571  0.7777777777777786  0.4583114750000021   F   F   F
  0.4444444444444429  0.8888888888888857  0.3750218583333336   F   F   F
  0.3333333333333357  0.6666666666666643  0.4166666666666643   F   F   F
  0.5555555555555571  0.7777777777777786  0.6249781416666664   T   T   T
  0.4444444444444429  0.8888888888888857  0.5416885249999979   F   F   F
  0.3333333333333357  0.6666666666666643  0.5833333333333357   T   T   T
  0.8888888888888857  0.1111111111111143  0.4583114750000021   F   F   F
  0.7777777777777786  0.2222222222222214  0.3750218583333336   F   F   F
  0.6666666666666643  0.0000000000000000  0.4166666666666643   F   F   F
  0.8888888888888857  0.1111111111111143  0.6249781416666664   T   T   T
  0.7777777777777786  0.2222222222222214  0.5416885249999979   F   F   F
  0.6666666666666643  0.0000000000000000  0.5833333333333357   T   T   T
  0.8888888888888857  0.4444444444444429  0.4583114750000021   F   F   F
  0.7777777777777786  0.5555555555555571  0.3750218583333336   F   F   F
  0.6666666666666643  0.3333333333333357  0.4166666666666643   F   F   F
  0.8888888888888857  0.4444444444444429  0.6249781416666664   T   T   T
  0.7777777777777786  0.5555555555555571  0.5416885249999979   F   F   F
  0.6666666666666643  0.3333333333333357  0.5833333333333357   T   T   T
  0.8888888888888857  0.7777777777777786  0.4583114750000021   F   F   F
  0.7777777777777786  0.8888888888888857  0.3750218583333336   F   F   F
  0.6666666666666643  0.6666666666666643  0.4166666666666643   F   F   F
  0.8888888888888857  0.7777777777777786  0.6249781416666664   T   T   T
  0.7777777777777786  0.8888888888888857  0.5416885249999979   F   F   F
  0.6666666666666643  0.6666666666666643  0.5833333333333357   T   T   T
 
  0.00000000E+00  0.00000000E+00  0.00000000E+00
  0.00000000E+00  0.00000000E+00  0.00000000E+00
  0.00000000E+00  0.00000000E+00  0.00000000E+00
  0.00000000E+00  0.00000000E+00  0.00000000E+00
  0.00000000E+00  0.00000000E+00  0.00000000E+00
  0.00000000E+00  0.00000000E+00  0.00000000E+00
  0.00000000E+00  0.00000000E+00  0.00000000E+00
  0.00000000E+00  0.00000000E+00  0.00000000E+00
  0.00000000E+00  0.00000000E+00  0.00000000E+00
  0.00000000E+00  0.00000000E+00  0.00000000E+00
  0.00000000E+00  0.00000000E+00  0.00000000E+00
  0.00000000E+00  0.00000000E+00  0.00000000E+00
  0.00000000E+00  0.00000000E+00  0.00000000E+00
  0.00000000E+00  0.00000000E+00  0.00000000E+00
  0.00000000E+00  0.00000000E+00  0.00000000E+00
  0.00000000E+00  0.00000000E+00  0.00000000E+00
  0.00000000E+00  0.00000000E+00  0.00000000E+00
  0.00000000E+00  0.00000000E+00  0.00000000E+00
  0.00000000E+00  0.00000000E+00  0.00000000E+00
  0.00000000E+00  0.00000000E+00  0.00000000E+00
  0.00000000E+00  0.00000000E+00  0.00000000E+00
  0.00000000E+00  0.00000000E+00  0.00000000E+00
  0.00000000E+00  0.00000000E+00  0.00000000E+00
  0.00000000E+00  0.00000000E+00  0.00000000E+00
  0.00000000E+00  0.00000000E+00  0.00000000E+00
  0.00000000E+00  0.00000000E+00  0.00000000E+00
  0.00000000E+00  0.00000000E+00  0.00000000E+00
  0.00000000E+00  0.00000000E+00  0.00000000E+00
  0.00000000E+00  0.00000000E+00  0.00000000E+00
  0.00000000E+00  0.00000000E+00  0.00000000E+00
  0.00000000E+00  0.00000000E+00  0.00000000E+00
  0.00000000E+00  0.00000000E+00  0.00000000E+00
  0.00000000E+00  0.00000000E+00  0.00000000E+00
  0.00000000E+00  0.00000000E+00  0.00000000E+00
  0.00000000E+00  0.00000000E+00  0.00000000E+00
  0.00000000E+00  0.00000000E+00  0.00000000E+00
  0.00000000E+00  0.00000000E+00  0.00000000E+00
  0.00000000E+00  0.00000000E+00  0.00000000E+00
  0.00000000E+00  0.00000000E+00  0.00000000E+00
  0.00000000E+00  0.00000000E+00  0.00000000E+00
  0.00000000E+00  0.00000000E+00  0.00000000E+00
  0.00000000E+00  0.00000000E+00  0.00000000E+00
  0.00000000E+00  0.00000000E+00  0.00000000E+00
  0.00000000E+00  0.00000000E+00  0.00000000E+00
  0.00000000E+00  0.00000000E+00  0.00000000E+00
  0.00000000E+00  0.00000000E+00  0.00000000E+00
  0.00000000E+00  0.00000000E+00  0.00000000E+00
  0.00000000E+00  0.00000000E+00  0.00000000E+00
  0.00000000E+00  0.00000000E+00  0.00000000E+00
  0.00000000E+00  0.00000000E+00  0.00000000E+00
  0.00000000E+00  0.00000000E+00  0.00000000E+00
  0.00000000E+00  0.00000000E+00  0.00000000E+00
  0.00000000E+00  0.00000000E+00  0.00000000E+00
  0.00000000E+00  0.00000000E+00  0.00000000E+00
