Na Zn Se O                              
   1.00000000000000     
    12.5737654922200619    0.0000000000000000    0.0000000000000008
    -0.0000000000000008   13.6573092344788751    0.0000000000000008
     0.0000000000000000    0.0000000000000000   35.6163122855555727
   Na   Zn   Se   O 
    32    16    32     1
Selective dynamics
Direct
  0.0052537591893582  0.3121383095406784  0.6226558341577046   T   T   T
  0.2500000000000000  0.4225510750000012  0.3701131300000000   F   F   F
  0.0000000000000000  0.0774489249999988  0.3701131300000000   F   F   F
  0.2567973676874473  0.1572123919957988  0.6281137581419500   T   T   T
  0.2500000000000000  0.0774489249999988  0.4632202033333357   F   F   F
  0.0000000000000000  0.1725510750000012  0.5367797966666643   F   F   F
  0.2500000000000000  0.3274489249999988  0.5367797966666643   F   F   F
  0.0000000000000000  0.4225510750000012  0.4632202033333357   F   F   F
  0.3779721383160322  0.0017106628592529  0.5832041891997619   T   T   T
  0.1259290254247318  0.9988676005007306  0.5828217169856700   T   T   T
  0.1250000000000000  0.2500000000000000  0.4166666666666643   F   F   F
  0.3750000000000000  0.2500000000000000  0.4166666666666643   F   F   F
  0.2540969568496934  0.3837462035327235  0.6219789932356008   T   T   T
  0.0000000000000000  0.3574659324999985  0.3789207416666684   F   F   F
  0.2500000000000000  0.1425340675000015  0.3789207416666684   F   F   F
  0.9988817599145676  0.0992147022709062  0.6238336391894492   T   T   T
  0.0000000000000000  0.1425340675000015  0.4544125916666673   F   F   F
  0.2500000000000000  0.1074659324999985  0.5455874083333327   F   F   F
  0.0000000000000000  0.3925340675000015  0.5455874083333327   F   F   F
  0.2500000000000000  0.3574659324999985  0.4544125916666673   F   F   F
  0.9945780277741463  0.8597107445247829  0.6330969788984788   T   T   T
  0.2500000000000000  0.9225510750000012  0.3701131300000000   F   F   F
  0.0000000000000000  0.5774489249999988  0.3701131300000000   F   F   F
  0.2098256802788185  0.6971772415995758  0.6203408837748157   T   T   T
  0.2500000000000000  0.5774489249999988  0.4632202033333357   F   F   F
  0.0000000000000000  0.6725510750000012  0.5367797966666643   F   F   F
  0.2500000000000000  0.8274489249999988  0.5367797966666643   F   F   F
  0.0000000000000000  0.9225510750000012  0.4632202033333357   F   F   F
  0.3751295763266072  0.5017781265876593  0.5856701844415682   T   T   T
  0.1320229173619083  0.4893879600403821  0.5838161198421830   T   T   T
  0.1250000000000000  0.7500000000000000  0.4166666666666643   F   F   F
  0.3750000000000000  0.7500000000000000  0.4166666666666643   F   F   F
  0.2548364232541758  0.9050961964580537  0.6250576698886690   T   T   T
  0.0000000000000000  0.8574659324999985  0.3789207416666684   F   F   F
  0.2500000000000000  0.6425340675000015  0.3789207416666684   F   F   F
  0.9987720563219114  0.5778887294820478  0.6293178585920245   T   T   T
  0.0000000000000000  0.6425340675000015  0.4544125916666673   F   F   F
  0.2500000000000000  0.6074659324999985  0.5455874083333327   F   F   F
  0.0000000000000000  0.8925340675000015  0.5455874083333327   F   F   F
  0.2500000000000000  0.8574659324999985  0.4544125916666673   F   F   F
  0.4977127080485388  0.3246023634433541  0.6243063359419736   T   T   T
  0.7500000000000000  0.4225510750000012  0.3701131300000000   F   F   F
  0.5000000000000000  0.0774489249999988  0.3701131300000000   F   F   F
  0.7444262216368216  0.1712465440120923  0.6248341764131098   T   T   T
  0.7500000000000000  0.0774489249999988  0.4632202033333357   F   F   F
  0.5000000000000000  0.1725510750000012  0.5367797966666643   F   F   F
  0.7500000000000000  0.3274489249999988  0.5367797966666643   F   F   F
  0.5000000000000000  0.4225510750000012  0.4632202033333357   F   F   F
  0.8733158375579819  0.9989602208743307  0.5824082341515862   T   T   T
  0.6244432939451059  0.9987653583090506  0.5844328774667176   T   T   T
  0.6250000000000000  0.2500000000000000  0.4166666666666643   F   F   F
  0.8750000000000000  0.2500000000000000  0.4166666666666643   F   F   F
  0.7507425075023164  0.3903597152100957  0.6224516652878620   T   T   T
  0.5000000000000000  0.3574659324999985  0.3789207416666684   F   F   F
  0.7500000000000000  0.1425340675000015  0.3789207416666684   F   F   F
  0.5026141465046834  0.1084567385407027  0.6224622819525081   T   T   T
  0.5000000000000000  0.1425340675000015  0.4544125916666673   F   F   F
  0.7500000000000000  0.1074659324999985  0.5455874083333327   F   F   F
  0.5000000000000000  0.3925340675000015  0.5455874083333327   F   F   F
  0.7500000000000000  0.3574659324999985  0.4544125916666673   F   F   F
  0.4920120123842011  0.8275225602219223  0.6256289689253123   T   T   T
  0.7500000000000000  0.9225510750000012  0.3701131300000000   F   F   F
  0.5000000000000000  0.5774489249999988  0.3701131300000000   F   F   F
  0.7481894212068667  0.6796410073606651  0.6234715421765031   T   T   T
  0.7500000000000000  0.5774489249999988  0.4632202033333357   F   F   F
  0.5000000000000000  0.6725510750000012  0.5367797966666643   F   F   F
  0.7500000000000000  0.8274489249999988  0.5367797966666643   F   F   F
  0.5000000000000000  0.9225510750000012  0.4632202033333357   F   F   F
  0.8690536831471647  0.4954695612882389  0.5824266646500647   T   T   T
  0.6240474961587594  0.4993706284919384  0.5846452389729748   T   T   T
  0.6250000000000000  0.7500000000000000  0.4166666666666643   F   F   F
  0.8750000000000000  0.7500000000000000  0.4166666666666643   F   F   F
  0.7481200625316831  0.8940382799458533  0.6226548107643737   T   T   T
  0.5000000000000000  0.8574659324999985  0.3789207416666684   F   F   F
  0.7500000000000000  0.6425340675000015  0.3789207416666684   F   F   F
  0.5017847353169103  0.6064595182396388  0.6223292133879355   T   T   T
  0.5000000000000000  0.6425340675000015  0.4544125916666673   F   F   F
  0.7500000000000000  0.6074659324999985  0.5455874083333327   F   F   F
  0.5000000000000000  0.8925340675000015  0.5455874083333327   F   F   F
  0.7500000000000000  0.8574659324999985  0.4544125916666673   F   F   F
  0.0241586055839917  0.7041627867623532  0.6169294991870231   T   T   T
 
  0.00000000E+00  0.00000000E+00  0.00000000E+00
  0.00000000E+00  0.00000000E+00  0.00000000E+00
  0.00000000E+00  0.00000000E+00  0.00000000E+00
  0.00000000E+00  0.00000000E+00  0.00000000E+00
  0.00000000E+00  0.00000000E+00  0.00000000E+00
  0.00000000E+00  0.00000000E+00  0.00000000E+00
  0.00000000E+00  0.00000000E+00  0.00000000E+00
  0.00000000E+00  0.00000000E+00  0.00000000E+00
  0.00000000E+00  0.00000000E+00  0.00000000E+00
  0.00000000E+00  0.00000000E+00  0.00000000E+00
  0.00000000E+00  0.00000000E+00  0.00000000E+00
  0.00000000E+00  0.00000000E+00  0.00000000E+00
  0.00000000E+00  0.00000000E+00  0.00000000E+00
  0.00000000E+00  0.00000000E+00  0.00000000E+00
  0.00000000E+00  0.00000000E+00  0.00000000E+00
  0.00000000E+00  0.00000000E+00  0.00000000E+00
  0.00000000E+00  0.00000000E+00  0.00000000E+00
  0.00000000E+00  0.00000000E+00  0.00000000E+00
  0.00000000E+00  0.00000000E+00  0.00000000E+00
  0.00000000E+00  0.00000000E+00  0.00000000E+00
  0.00000000E+00  0.00000000E+00  0.00000000E+00
  0.00000000E+00  0.00000000E+00  0.00000000E+00
  0.00000000E+00  0.00000000E+00  0.00000000E+00
  0.00000000E+00  0.00000000E+00  0.00000000E+00
  0.00000000E+00  0.00000000E+00  0.00000000E+00
  0.00000000E+00  0.00000000E+00  0.00000000E+00
  0.00000000E+00  0.00000000E+00  0.00000000E+00
  0.00000000E+00  0.00000000E+00  0.00000000E+00
  0.00000000E+00  0.00000000E+00  0.00000000E+00
  0.00000000E+00  0.00000000E+00  0.00000000E+00
  0.00000000E+00  0.00000000E+00  0.00000000E+00
  0.00000000E+00  0.00000000E+00  0.00000000E+00
  0.00000000E+00  0.00000000E+00  0.00000000E+00
  0.00000000E+00  0.00000000E+00  0.00000000E+00
  0.00000000E+00  0.00000000E+00  0.00000000E+00
  0.00000000E+00  0.00000000E+00  0.00000000E+00
  0.00000000E+00  0.00000000E+00  0.00000000E+00
  0.00000000E+00  0.00000000E+00  0.00000000E+00
  0.00000000E+00  0.00000000E+00  0.00000000E+00
  0.00000000E+00  0.00000000E+00  0.00000000E+00
  0.00000000E+00  0.00000000E+00  0.00000000E+00
  0.00000000E+00  0.00000000E+00  0.00000000E+00
  0.00000000E+00  0.00000000E+00  0.00000000E+00
  0.00000000E+00  0.00000000E+00  0.00000000E+00
  0.00000000E+00  0.00000000E+00  0.00000000E+00
  0.00000000E+00  0.00000000E+00  0.00000000E+00
  0.00000000E+00  0.00000000E+00  0.00000000E+00
  0.00000000E+00  0.00000000E+00  0.00000000E+00
  0.00000000E+00  0.00000000E+00  0.00000000E+00
  0.00000000E+00  0.00000000E+00  0.00000000E+00
  0.00000000E+00  0.00000000E+00  0.00000000E+00
  0.00000000E+00  0.00000000E+00  0.00000000E+00
  0.00000000E+00  0.00000000E+00  0.00000000E+00
  0.00000000E+00  0.00000000E+00  0.00000000E+00
  0.00000000E+00  0.00000000E+00  0.00000000E+00
  0.00000000E+00  0.00000000E+00  0.00000000E+00
  0.00000000E+00  0.00000000E+00  0.00000000E+00
  0.00000000E+00  0.00000000E+00  0.00000000E+00
  0.00000000E+00  0.00000000E+00  0.00000000E+00
  0.00000000E+00  0.00000000E+00  0.00000000E+00
  0.00000000E+00  0.00000000E+00  0.00000000E+00
  0.00000000E+00  0.00000000E+00  0.00000000E+00
  0.00000000E+00  0.00000000E+00  0.00000000E+00
  0.00000000E+00  0.00000000E+00  0.00000000E+00
  0.00000000E+00  0.00000000E+00  0.00000000E+00
  0.00000000E+00  0.00000000E+00  0.00000000E+00
  0.00000000E+00  0.00000000E+00  0.00000000E+00
  0.00000000E+00  0.00000000E+00  0.00000000E+00
  0.00000000E+00  0.00000000E+00  0.00000000E+00
  0.00000000E+00  0.00000000E+00  0.00000000E+00
  0.00000000E+00  0.00000000E+00  0.00000000E+00
  0.00000000E+00  0.00000000E+00  0.00000000E+00
  0.00000000E+00  0.00000000E+00  0.00000000E+00
  0.00000000E+00  0.00000000E+00  0.00000000E+00
  0.00000000E+00  0.00000000E+00  0.00000000E+00
  0.00000000E+00  0.00000000E+00  0.00000000E+00
  0.00000000E+00  0.00000000E+00  0.00000000E+00
  0.00000000E+00  0.00000000E+00  0.00000000E+00
  0.00000000E+00  0.00000000E+00  0.00000000E+00
  0.00000000E+00  0.00000000E+00  0.00000000E+00
  0.00000000E+00  0.00000000E+00  0.00000000E+00
