Na Zn Se O
 1.0000000000000000
    12.5737654922200619    0.0000000000000000    0.0000000000000008
    -0.0000000000000008   13.6573092344788751    0.0000000000000008
     0.0000000000000000    0.0000000000000000   35.6163122855555727
Na Zn Se O
32 16 32 1
Selective dynamics
Cartesian
  0.0660595359995566  4.2629694173245509 22.1767046357838673   T   T   T
  3.1434413730550150  5.7709106986364755 13.1820648190644238   F   F   F
 -0.0000000000000001  1.0577439186029627 13.1820648190644238   F   F   F
  3.2289098803213570  2.1470982529787279 22.3710957608375658   T   T   T
  3.1434413730550155  1.0577439186029627 16.4981954188985469   F   F   F
 -0.0000000000000001  2.3565833900167577 19.1181168666570223   F   F   F
  3.1434413730550150  4.4720712272226804 19.1181168666570223   F   F   F
 -0.0000000000000004  5.7709106986364755 16.4981954188985469   F   F   F
  4.7525330297787303  0.0233630516647736 20.7715825287828650   T   T   T
  1.5834020343543873 -0.0154655301384992 20.7579602789651929   T   T   T
  1.5717206865275075  3.4143273086197188 14.8401301189814880   F   F   F
  4.7151620595825232  3.4143273086197188 14.8401301189814845   F   F   F
  3.1949555477148297  5.2409405692037216 22.1525980581346644   T   T   T
 -0.0000000000000003  4.8820227809438519 13.4957594666743272   F   F   F
  3.1434413730550155  1.9466318362955857 13.4957594666743272   F   F   F
 -0.0140604885982612  1.3550058695205487 22.2186537076059736   T   T   T
 -0.0000000000000001  1.9466318362955857 16.1845007712886435   F   F   F
  3.1434413730550155  1.4676954723241331 19.4318115142669221   F   F   F
 -0.0000000000000003  5.3609591449153040 19.4318115142669221   F   F   F
  3.1434413730550150  4.8820227809438528 16.1845007712886435   F   F   F
 -0.0681746072732501 11.7413354901790221 22.5485797074900667   T   T   T
  3.1434413730550146 12.5995653158759140 13.1820648190644238   F   F   F
 -0.0000000000000005  7.8863985358424005 13.1820648190644238   F   F   F
  2.6382988980714290  9.5215651797664052 22.0942546400213224   T   T   T
  3.1434413730550150  7.8863985358424005 16.4981954188985469   F   F   F
 -0.0000000000000006  9.1852380072561957 19.1181168666570223   F   F   F
  3.1434413730550146 11.3007258444621179 19.1181168666570223   F   F   F
 -0.0000000000000008 12.5995653158759140 16.4981954188985469   F   F   F
  4.7167913219265909  6.8529390419051035 20.8594121854099015   T   T   T
  1.6600252025073785  6.6837227059022846 20.7933772416404921   T   T   T
  1.5717206865275071 10.2429819258591568 14.8401301189814880   F   F   F
  4.7151620595825232 10.2429819258591568 14.8401301189814845   F   F   F
  3.2042534248740990 12.3611786419783058 22.2622491672364973   T   T   T
 -0.0000000000000007 11.7106773981832895 13.4957594666743272   F   F   F
  3.1434413730550150  8.7752864535350241 13.4957594666743272   F   F   F
 -0.0154398758459143  7.8924050816564026 22.4139813784905542   T   T   T
 -0.0000000000000005  8.7752864535350241 16.1845007712886435   F   F   F
  3.1434413730550150  8.2963500895635711 19.4318115142669221   F   F   F
 -0.0000000000000007 12.1896137621547425 19.4318115142669221   F   F   F
  3.1434413730550146 11.7106773981832895 16.1845007712886435   F   F   F
  6.2581228735000778  4.4331948557886092 22.2354894227603701   T   T   T
  9.4303241191650464  5.7709106986364755 13.1820648190644238   F   F   F
  6.2868827461100310  1.0577439186029627 13.1820648190644238   F   F   F
  9.3602407371208152  2.3387670069089013 22.2542891538171581   T   T   T
  9.4303241191650464  1.0577439186029627 16.4981954188985469   F   F   F
  6.2868827461100310  2.3565833900167577 19.1181168666570223   F   F   F
  9.4303241191650464  4.4720712272226804 19.1181168666570223   F   F   F
  6.2868827461100310  5.7709106986364755 16.4981954188985469   F   F   F
 10.9808685420957826 -0.0142005850548230 20.7432335452218197   T   T   T
  7.8516035412552458 -0.0168618833670280 20.8153438738004937   T   T   T
  7.8586034326375387  3.4143273086197188 14.8401301189814880   F   F   F
 11.0020448056925542  3.4143273086197188 14.8401301189814845   F   F   F
  9.4396602343753635  5.3312633433074188 22.1694328935564968   T   T   T
  6.2868827461100310  4.8820227809438519 13.4957594666743272   F   F   F
  9.4303241191650464  1.9466318362955857 13.4957594666743272   F   F   F
  6.3197524112222609  1.4812272168133611 22.1698110200000897   T   T   T
  6.2868827461100310  1.9466318362955857 16.1845007712886435   F   F   F
  9.4303241191650464  1.4676954723241331 19.4318115142669221   F   F   F
  6.2868827461100310  5.3609591449153040 19.4318115142669221   F   F   F
  9.4303241191650464  4.8820227809438528 16.1845007712886435   F   F   F
  6.1864436630742503 11.3017315034584094 22.2825967321339569   T   T   T
  9.4303241191650464 12.5995653158759140 13.1820648190644238   F   F   F
  6.2868827461100310  7.8863985358424005 13.1820648190644238   F   F   F
  9.4075583260150175  9.2820674059573705 22.2057571473153850   T   T   T
  9.4303241191650464  7.8863985358424005 16.4981954188985469   F   F   F
  6.2868827461100310  9.1852380072561957 19.1181168666570223   F   F   F
  9.4303241191650464 11.3007258444621179 19.1181168666570223   F   F   F
  6.2868827461100310 12.5995653158759140 16.4981954188985469   F   F   F
 10.9272772120425596  6.7667810147850398 20.7438899716112886   T   T   T
  7.8466268727073487  6.8200590959304757 20.8229074075248448   T   T   T
  7.8586034326375387 10.2429819258591568 14.8401301189814880   F   F   F
 11.0020448056925542 10.2429819258591568 14.8401301189814845   F   F   F
  9.4066862262984010 12.2101572566821162 22.1766681862874080   T   T   T
  6.2868827461100310 11.7106773981832895 13.4957594666743272   F   F   F
  9.4303241191650464  8.7752864535350241 13.4957594666743272   F   F   F
  6.3093235894505497  8.2826051787918509 22.1650716084487627   T   T   T
  6.2868827461100310  8.7752864535350241 16.1845007712886435   F   F   F
  9.4303241191650464  8.2963500895635711 19.4318115142669221   F   F   F
  6.2868827461100310 12.1896137621547425 19.4318115142669221   F   F   F
  9.4303241191650464 11.7106773981832895 16.1845007712886435   F   F   F
 12.8775301334522201  9.6169689302258963 21.9727537012163836   T   T   T
