Cd In Se H O                            
   1.00000000000000     
    11.9454120828770254    0.0000000000000000    0.0000000000000007
    -5.9727060414385118   13.6834591530377256   -0.8092229449120690
     0.0000000000000000    0.0000000000000000   32.3117488716703605
   Cd   In   Se   H    O 
     8    16    32     1     1
Selective dynamics
Direct
  0.4367684667588279  0.3988684142020560  0.5912815426541229   T   T   T
  0.0416666666666643  0.0833333333333357  0.4166666666666643   F   F   F
  0.1041666666666643  0.2083333333333357  0.5416666666666643   F   F   F
  0.3082435663532479  0.1130177562367152  0.6259866234667228   T   T   T
  0.1875000000000000  0.3750000000000000  0.3750000000000000   F   F   F
  0.3958333333333357  0.2916666666666643  0.4583333333333357   F   F   F
  0.2948303416666676  0.3647107883333334  0.5179321366666656   F   F   F
  0.1559142015810195  0.0564868330867938  0.5576785097456423   T   T   T
  0.0152667237287645  0.2645562158307229  0.6109051739811022   T   T   T
  0.3276690317637261  0.4586187598251996  0.6517058952171055   T   T   T
  0.3781636750000033  0.0313774549999977  0.3512654700000013   F   F   F
  0.2510113425000000  0.2269725800000018  0.3903844949999993   F   F   F
  0.1073720958333340  0.4396940866666696  0.4429488383333364   F   F   F
  0.4301195533333342  0.1352892116666666  0.4820678633333344   F   F   F
  0.4414893303761289  0.9141429521406579  0.5893104278081367   T   T   T
  0.0416666666666643  0.5833333333333357  0.4166666666666643   F   F   F
  0.1041666666666643  0.7083333333333357  0.5416666666666643   F   F   F
  0.3254946371061251  0.5956897066974705  0.6100954893733928   T   T   T
  0.1875000000000000  0.8750000000000000  0.3750000000000000   F   F   F
  0.3958333333333357  0.7916666666666643  0.4583333333333357   F   F   F
  0.2948303416666676  0.8647107883333334  0.5179321366666656   F   F   F
  0.1436492803113936  0.5507181753542980  0.5561336084585022   T   T   T
  0.0162686432867218  0.7666111435880083  0.6098131975723575   T   T   T
  0.3456717150290913  0.9671298094932510  0.6538700054572644   T   T   T
  0.3781636750000033  0.5313774549999977  0.3512654700000013   F   F   F
  0.2510113425000000  0.7269725800000018  0.3903844949999993   F   F   F
  0.1073720958333340  0.9396940866666696  0.4429488383333364   F   F   F
  0.4301195533333342  0.6352892116666666  0.4820678633333344   F   F   F
  0.9377686301648680  0.4047914564234887  0.5898620073318241   T   T   T
  0.5416666666666643  0.0833333333333357  0.4166666666666643   F   F   F
  0.6041666666666643  0.2083333333333357  0.5416666666666643   F   F   F
  0.8248050799709929  0.0967309377800447  0.6107498583958773   T   T   T
  0.6875000000000000  0.3750000000000000  0.3750000000000000   F   F   F
  0.8958333333333357  0.2916666666666643  0.4583333333333357   F   F   F
  0.7948303416666676  0.3647107883333334  0.5179321366666656   F   F   F
  0.6482132114761683  0.0513144384626614  0.5546383328813320   T   T   T
  0.5226574020008812  0.2649492938402105  0.6101570304228403   T   T   T
  0.8474209651170455  0.4692204188892788  0.6540337145706658   T   T   T
  0.8781636750000033  0.0313774549999977  0.3512654700000013   F   F   F
  0.7510113425000000  0.2269725800000018  0.3903844949999993   F   F   F
  0.6073720958333340  0.4396940866666696  0.4429488383333364   F   F   F
  0.9301195533333342  0.1352892116666666  0.4820678633333344   F   F   F
  0.9491383402335529  0.9160807116488172  0.5881551911868783   T   T   T
  0.5416666666666643  0.5833333333333357  0.4166666666666643   F   F   F
  0.6041666666666643  0.7083333333333357  0.5416666666666643   F   F   F
  0.8257312879414798  0.5979928915245196  0.6114673293781863   T   T   T
  0.6875000000000000  0.8750000000000000  0.3750000000000000   F   F   F
  0.8958333333333357  0.7916666666666643  0.4583333333333357   F   F   F
  0.7948303416666676  0.8647107883333334  0.5179321366666656   F   F   F
  0.6425616627956856  0.5510283323394916  0.5587594555641502   T   T   T
  0.5138711382751637  0.7647733877193232  0.6095049717147276   T   T   T
  0.8262020439095039  0.9564343840920060  0.6501562748266494   T   T   T
  0.8781636750000033  0.5313774549999977  0.3512654700000013   F   F   F
  0.7510113425000000  0.7269725800000018  0.3903844949999993   F   F   F
  0.6073720958333340  0.9396940866666696  0.4429488383333364   F   F   F
  0.9301195533333342  0.6352892116666666  0.4820678633333344   F   F   F
  0.2423658795427954  0.1724353257229154  0.6942684994608399   T   T   T
  0.2301719431326248  0.1852306717525281  0.6656685211975883   T   T   T
 
  0.00000000E+00  0.00000000E+00  0.00000000E+00
  0.00000000E+00  0.00000000E+00  0.00000000E+00
  0.00000000E+00  0.00000000E+00  0.00000000E+00
  0.00000000E+00  0.00000000E+00  0.00000000E+00
  0.00000000E+00  0.00000000E+00  0.00000000E+00
  0.00000000E+00  0.00000000E+00  0.00000000E+00
  0.00000000E+00  0.00000000E+00  0.00000000E+00
  0.00000000E+00  0.00000000E+00  0.00000000E+00
  0.00000000E+00  0.00000000E+00  0.00000000E+00
  0.00000000E+00  0.00000000E+00  0.00000000E+00
  0.00000000E+00  0.00000000E+00  0.00000000E+00
  0.00000000E+00  0.00000000E+00  0.00000000E+00
  0.00000000E+00  0.00000000E+00  0.00000000E+00
  0.00000000E+00  0.00000000E+00  0.00000000E+00
  0.00000000E+00  0.00000000E+00  0.00000000E+00
  0.00000000E+00  0.00000000E+00  0.00000000E+00
  0.00000000E+00  0.00000000E+00  0.00000000E+00
  0.00000000E+00  0.00000000E+00  0.00000000E+00
  0.00000000E+00  0.00000000E+00  0.00000000E+00
  0.00000000E+00  0.00000000E+00  0.00000000E+00
  0.00000000E+00  0.00000000E+00  0.00000000E+00
  0.00000000E+00  0.00000000E+00  0.00000000E+00
  0.00000000E+00  0.00000000E+00  0.00000000E+00
  0.00000000E+00  0.00000000E+00  0.00000000E+00
  0.00000000E+00  0.00000000E+00  0.00000000E+00
  0.00000000E+00  0.00000000E+00  0.00000000E+00
  0.00000000E+00  0.00000000E+00  0.00000000E+00
  0.00000000E+00  0.00000000E+00  0.00000000E+00
  0.00000000E+00  0.00000000E+00  0.00000000E+00
  0.00000000E+00  0.00000000E+00  0.00000000E+00
  0.00000000E+00  0.00000000E+00  0.00000000E+00
  0.00000000E+00  0.00000000E+00  0.00000000E+00
  0.00000000E+00  0.00000000E+00  0.00000000E+00
  0.00000000E+00  0.00000000E+00  0.00000000E+00
  0.00000000E+00  0.00000000E+00  0.00000000E+00
  0.00000000E+00  0.00000000E+00  0.00000000E+00
  0.00000000E+00  0.00000000E+00  0.00000000E+00
  0.00000000E+00  0.00000000E+00  0.00000000E+00
  0.00000000E+00  0.00000000E+00  0.00000000E+00
  0.00000000E+00  0.00000000E+00  0.00000000E+00
  0.00000000E+00  0.00000000E+00  0.00000000E+00
  0.00000000E+00  0.00000000E+00  0.00000000E+00
  0.00000000E+00  0.00000000E+00  0.00000000E+00
  0.00000000E+00  0.00000000E+00  0.00000000E+00
  0.00000000E+00  0.00000000E+00  0.00000000E+00
  0.00000000E+00  0.00000000E+00  0.00000000E+00
  0.00000000E+00  0.00000000E+00  0.00000000E+00
  0.00000000E+00  0.00000000E+00  0.00000000E+00
  0.00000000E+00  0.00000000E+00  0.00000000E+00
  0.00000000E+00  0.00000000E+00  0.00000000E+00
  0.00000000E+00  0.00000000E+00  0.00000000E+00
  0.00000000E+00  0.00000000E+00  0.00000000E+00
  0.00000000E+00  0.00000000E+00  0.00000000E+00
  0.00000000E+00  0.00000000E+00  0.00000000E+00
  0.00000000E+00  0.00000000E+00  0.00000000E+00
  0.00000000E+00  0.00000000E+00  0.00000000E+00
  0.00000000E+00  0.00000000E+00  0.00000000E+00
  0.00000000E+00  0.00000000E+00  0.00000000E+00
