Cd In Se H O
 1.0000000000000000
    11.9454120828770254    0.0000000000000000    0.0000000000000007
    -5.9727060414385118   13.6834591530377256   -0.8092229449120690
     0.0000000000000000    0.0000000000000000   32.3117488716703605
Cd In Se H O
8 16 32 1 1
Selective dynamics
Cartesian
  2.8350555329969249  5.4578996531707888 18.7825672459208626   T   T   T
  0.0000000000000001  1.1402882627531428 13.3957934511199799   F   F   F
  0.0000000000000002  2.8507206568828587 17.3336091919647650   F   F   F
  3.0070745865203250  1.5464738510330467 20.1352660129523535   T   T   T
  0.0000000000000004  5.1312971823891473 11.8134472225343625   F   F   F
  2.9863530207192563  3.9910089196360028 14.5735282072495611   F   F   F
  1.3435595968874599  4.9905051748313536 16.4401607943646866   F   F   F
  1.5250801382188188  0.7729352732275678 17.9738575166093355   T   T   T
 -1.3977492024967400  3.6200441730019279 19.5253296060120256   T   T   T
  1.1749465736900659  6.2754910668849186 20.6866324010244682   T   T   T
  4.3299126176067153  0.4293521238187778 11.3246102973903131   F   F   F
  1.6427934238317976  3.1057700272895858 12.4303343462319660   F   F   F
 -1.3435595968874585  6.0165360747355638 13.9566410835519576   F   F   F
  4.3299126176067171  1.8512244016875017 15.4669766048496431   F   F   F
 -0.1861351514526173 12.5086377456539939 18.3019050989911634   T   T   T
 -2.9863530207192559  7.9820178392720056 12.9911819786639455   F   F   F
 -2.9863530207192559  9.6924502334017220 16.9289977195087289   F   F   F
  0.3302880609844587  8.1510957694798183 19.2312064616644705   T   T   T
 -2.9863530207192555 11.9730267589080093 11.4088357500783282   F   F   F
  0.0000000000000004 10.8327384961548656 14.1689167347935268   F   F   F
 -1.6427934238317961 11.8322347513502173 16.0355493219086505   F   F   F
 -1.5733279243402609  7.5357296572959864 17.5239957119302225   T   T   T
 -4.3844073606529488 10.4898922695500296 19.0837715713716776   T   T   T
 -1.6471909745982933 13.2336812438860232 20.3450597785023781   T   T   T
  1.3435595968874594  7.2710817003376409 10.9199988249342788   F   F   F
 -1.3435595968874583  9.9474996038084491 12.0257228737759316   F   F   F
 -4.3299126176067144 12.8582656512544276 13.5520296110959233   F   F   F
  1.3435595968874612  8.6929539782063650 15.0623651323936087   F   F   F
  8.7843323484111462  5.5389473594694936 18.7319065154030149   T   T   T
  5.9727060414385127  1.1402882627531428 13.3957934511199799   F   F   F
  5.9727060414385127  2.8507206568828587 17.3336091919647650   F   F   F
  9.2748911118309607  1.3236138359483125 19.6561191535614164   T   T   T
  5.9727060414385136  5.1312971823891473 11.8134472225343625   F   F   F
  8.9590590621577686  3.9910089196360028 14.5735282072495611   F   F   F
  7.3162656383259730  4.9905051748313536 16.4401607943646866   F   F   F
  7.4366878720289753  0.7021590226649372 17.8798097056542460   T   T   T
  4.6608937970721058  3.6254228398887549 19.5008376914931496   T   T   T
  7.3202770053261759  6.4205584356426550 20.7532692096266658   T   T   T
 10.3026186590452280  0.4293521238187778 11.3246102973903131   F   F   F
  7.6154994652703101  3.1057700272895858 12.4303343462319660   F   F   F
  4.6291464445510542  6.0165360747355638 13.9566410835519576   F   F   F
 10.3026186590452298  1.8512244016875017 15.4669766048496431   F   F   F
  5.8663677968375936 12.5351529987322809 18.2630093039421375   T   T   T
  2.9863530207192568  7.9820178392720056 12.9911819786639455   F   F   F
  2.9863530207192568  9.6924502334017220 16.9289977195087324   F   F   F
  6.2920647482400085  8.1826113049826947 19.2736692213830203   T   T   T
  2.9863530207192572 11.9730267589080093 11.4088357500783282   F   F   F
  5.9727060414385136 10.8327384961548656 14.1689167347935268   F   F   F
  4.3299126176067162 11.8322347513502173 16.0355493219086540   F   F   F
  4.3845336011852964  7.5399736777338955 17.6085904380343408   T   T   T
  1.5706358710313073 10.4647454121876144 19.0752994090800989   T   T   T
  4.1568224541084451 13.0873308272838056 20.2337176306293074   T   T   T
  7.3162656383259721  7.2710817003376409 10.9199988249342788   F   F   F
  4.6291464445510542  9.9474996038084491 12.0257228737759316   F   F   F
  1.6427934238317983 12.8582656512544276 13.5520296110959233   F   F   F
  7.3162656383259739  8.6929539782063650 15.0623651323936087   F   F   F
  1.8652547942649296  2.3595117360702949 22.2934907820016051   T   T   T
  1.6431703583996748  2.5345963308154840 21.3590211790290141   T   T   T
