Cs Au Se
 1.0000000000000000
     8.9376629211887302    0.0000000000000000    0.0000000000000005
    -0.0000000000000009   14.6379485599999999    0.0000000000000009
     0.0000000000000000    0.0000000000000000   29.9307416084272049
Cs Au Se
8 8 8
Selective dynamics
Cartesian
  1.1698001125822581  1.8297435699999991 13.0946994536869017   F   F   F
  7.7678628086064716  5.4892307100000002 13.0946994536869017   F   F   F
  5.7666363745198188  1.8296393420289345 16.7200635559128052   T   T   T
  3.1708070914472430  5.4893735335563028 16.7200409671494192   T   T   T
  0.0001692425286135  3.6594586351977694 16.8552968639850071   T   T   T
  0.0001452417542396  0.0008768574598434 16.8554804521116814   T   T   T
  4.4688314605943651  3.6594871400000000 13.0946994536869017   F   F   F
  4.4688314605943651  0.0000000000000000 13.0946994536869017   F   F   F
  6.1758821777593909  1.8297435699999991 13.0946994536869017   F   F   F
  2.7617807434293384  5.4892307100000002 13.0946994536869017   F   F   F
  1.6604442090813833  1.8308733839470455 16.8274107461182787   T   T   T
  7.2787543703662898  5.4900334783525144 16.8277617519632834   T   T   T
  1.1698001125822577  9.1487178499999988 13.0946994536869017   F   F   F
  7.7678628086064707 12.8082049900000001 13.0946994536869017   F   F   F
  5.7671638127618063  9.1487940198593112 16.7200057239241353   T   T   T
  3.1702724802751998 12.8075367025276918 16.7199911080968953   T   T   T
  0.0000093450016714 10.9789099518272604 16.8566708079159646   T   T   T
 -0.0000572169255979  7.3190188644070782 16.8559761310315146   T   T   T
  4.4688314605943642 10.9784614200000004 13.0946994536869017   F   F   F
  4.4688314605943642  7.3189742799999999 13.0946994536869017   F   F   F
  6.1758821777593900  9.1487178499999988 13.0946994536869017   F   F   F
  2.7617807434293380 12.8082049900000001 13.0946994536869017   F   F   F
  1.6598336307418360  9.1495444342479892 16.8286493850172185   T   T   T
  7.2791223862069385 12.8093565129634825 16.8281404024017895   T   T   T
