Te Au H O
 1.0000000000000000
    10.3816238299313373    0.0000000000000000    0.0000000000000006
     5.1807364356534356    7.4076454022250253   -4.4682037099999983
     0.0000000000000000    0.0000000000000000   35.7456296800000004
Te Au H O
16 8 1 1
Selective dynamics
Cartesian
 11.4846944982410992  6.9778884096919578 10.6081115917872708   F   F   F
  9.2854483658152791  0.4766610179966938 16.9946525517543527   F   F   F
  4.0946364508496105  0.4766610179966938 17.1205638513799272   F   F   F
  9.2795851080602851  4.1777148894107619 10.6436224173623124   F   F   F
  4.0887731930946165  4.1777148894107610 14.5351865657719728   F   F   F
  6.2938825832754306  6.9778884096919578 10.1024936813470099   F   F   F
 11.4626827746137252  3.2786737084783537 12.3618823969209757   F   F   F
  6.2718708596480592  3.2786737084783546 12.8169265862133077   F   F   F
  7.7929229198633259  1.8707258809604601 14.8725348735080800   F   F   F
  7.7792780957569150  5.5768322109975710 12.6078594686685186   F   F   F
 12.9700900107225845  5.5768322109975710 12.5709495144657666   F   F   F
  2.6021110048976572  1.8707258809604601 14.7744778196262025   F   F   F
 11.1311724392122802  7.2910065256980383 15.1315638037015923   T   T   T
  9.3363274878061535  0.8323592481200740 20.9800569657926133   T   T   T
  3.9815497565510656  0.7209388917425804 21.5624727723066378   T   T   T
  9.2795851080602851  4.1777148894107619 15.1118261273623133   F   F   F
  4.0242622858043751  4.4775933330166096 19.0441115766740516   T   T   T
  6.4038594502564452  7.2379275334057533 14.6425893256086681   T   T   T
 11.4092438258023350  3.8606208588966267 17.0592571240330706   T   T   T
  6.3777301475191006  3.6577801327652288 17.5118507948288844   T   T   T
  7.8998727433934839  2.0766738523648449 19.0878013832653401   T   T   T
  7.8710585693660207  5.8244854085356277 17.0493133359265272   T   T   T
 13.0680769793242018  5.9906193197271644 16.8538876001157725   T   T   T
  2.6138617157347346  2.1706534566706317 18.9252476979513418   T   T   T
 10.3527203124532594  7.1255487110436917 19.0554711488606046   T   T   T
 10.3889270386620147  8.0387905103323476 18.7036439487590656   T   T   T
