Ag In Se H O
 1.0000000000000000
    15.1011199803776375    0.0000000000000000    0.0000000000000009
    -4.5609416166787708   14.3958895602532451    0.0000000000000009
     0.0000000000000000    0.0000000000000000   35.6840018030261916
Ag In Se H O
16 16 32 1 1
Selective dynamics
Cartesian
  1.1453914267690695  7.5434838273893403 20.7518818044019859   T   T   T
 -1.1402354041696929  3.5989723900633130 16.7268758451685287   F   F   F
  2.6873956197577895  3.5555808164857732 19.4143511128299551   T   T   T
 -0.0000000000000001  0.0000000000000013 14.4966257324793908   F   F   F
  2.6350445909247160  3.5989723900633104 14.4966257324793908   F   F   F
  7.5254824445008550  0.0679827954800203 18.9361702665689720   T   T   T
 -1.2139697566876235  3.5806788416006325 21.2040499367678272   T   T   T
  3.7752799950944085  0.0000000000000006 16.7268758451685287   F   F   F
 -1.1402852813379361  6.3076290906439345 21.2349595856893458   T   T   T
  3.8526681639759586  2.6838567138600147 16.7078233537158489   F   F   F
  2.7124327598062656  6.2828291039233291 14.5156782239320687   F   F   F
  0.1189806497764579  2.7606223099553739 18.9754568014041674   T   T   T
 -1.0403366817585744  6.3135742612982613 16.7459283366212013   F   F   F
  3.8779740196836556  2.7990609725796416 21.6467777669879560   T   T   T
  0.0998987224111179  2.7146018712349504 14.4775732410267164   F   F   F
  2.7349433133358314  6.3135742612982639 18.9380734664049903   F   F   F
 -1.0952024496503814 14.8177265501522655 20.6962407142975131   T   T   T
 -3.4207062125090784 10.7969171701899356 16.7268758451685287   F   F   F
  0.5423083112401321 10.7797098539287397 19.3299638024793623   T   T   T
 -2.2804708083393854  7.1979447801266234 14.4966257324793908   F   F   F
  0.3545737825853306 10.7969171701899320 14.4966257324793908   F   F   F
  5.2439174764403642  7.2457846444292819 18.9401862482416092   T   T   T
 -3.7782372760624021 10.9609883963041099 20.5843630332503231   T   T   T
  1.4948091867550231  7.1979447801266234 16.7268758451685287   F   F   F
 -3.4213847357366616 13.5105464352854590 21.1369916849788453   T   T   T
  1.5721973556365731  9.8818014939866377 16.7078233537158489   F   F   F
  0.4319619514668802 13.4807738840499525 14.5156782239320687   F   F   F
 -2.0671178106234298  9.8466200253283738 18.9330558549382353   T   T   T
 -3.3208074900979598 13.5115190414248829 16.7459283366212013   F   F   F
  1.6322293942780797  9.9612617411204170 21.5945854410124447   T   T   T
 -2.1805720859282678  9.9125466513615734 14.4775732410267164   F   F   F
  0.4544725049964460 13.5115190414248865 18.9380734664049903   F   F   F
  8.7323831378965959  7.5814356418657409 20.6956103132517306   T   T   T
  6.4103245860191258  3.5989723900633130 16.7268758451685287   F   F   F
 10.4438490861123920  3.6141410866390666 19.1821442174248133   T   T   T
  7.5505599901888187  0.0000000000000013 14.4966257324793908   F   F   F
 10.1856045811135338  3.5989723900633104 14.4966257324793908   F   F   F
 15.0917173782888252  0.1139211726840586 18.9512181978159262   T   T   T
  5.9883388009460790  3.7729097365949142 20.6197348937541243   T   T   T
 11.3258399852832277  0.0000000000000006 16.7268758451685287   F   F   F
  6.3920678564536129  6.3363338673636127 21.1486984071115032   T   T   T
 11.4032281541647773  2.6838567138600147 16.7078233537158489   F   F   F
 10.2629927499950853  6.2828291039233291 14.5156782239320687   F   F   F
  7.7500143795536189  2.7334357070629034 18.9673099562433585   T   T   T
  6.5102233084302448  6.3135742612982613 16.7459283366212013   F   F   F
 11.3802872533363022  2.8498305762680642 21.4832243924533977   T   T   T
  7.6504587125999368  2.7146018712349504 14.4775732410267164   F   F   F
 10.2855033035246493  6.3135742612982639 18.9380734664049903   F   F   F
  6.4802210256852906 14.8253474460776218 20.6980344518826165   T   T   T
  4.1298537776797408 10.7969171701899356 16.7268758451685287   F   F   F
  8.1523489516911809 10.7965950827876220 19.2794632520587967   T   T   T
  5.2700891818494338  7.1979447801266234 14.4966257324793926   F   F   F
  7.9051337727741497 10.7969171701899320 14.4966257324793926   F   F   F
 12.8467666038384820  7.1387722732604608 19.0250069096771242   T   T   T
  3.7354757665939502 10.9847117861701733 20.5927543627305418   T   T   T
  9.0453691769438418  7.1979447801266234 16.7268758451685287   F   F   F
  4.1346487813926345 13.5358784520848978 21.1320058821864833   T   T   T
  9.1227573458253914  9.8818014939866377 16.7078233537158489   F   F   F
  7.9825219416556994 13.4807738840499525 14.5156782239320705   F   F   F
  5.4926276202291033  9.9204868703350790 18.9575940157674872   T   T   T
  4.2297525000908589 13.5115190414248829 16.7459283366212013   F   F   F
  9.1757717568283379  9.9830868089303308 21.5742766922335285   T   T   T
  5.3699879042605518  9.9125466513615734 14.4775732410267182   F   F   F
  8.0050324951852652 13.5115190414248865 18.9380734664049903   F   F   F
 -0.4451037154034965  2.8544914686566636 23.5437859885475902   T   T   T
  0.0647262910741919  2.9215778023798027 22.7134966710175341   T   T   T
