Te Au O                                 
   1.00000000000000     
    10.3816238299313373    0.0000000000000000    0.0000000000000006
     5.1807364356534356    7.4076454022250253   -4.4682037099999983
     0.0000000000000000    0.0000000000000000   35.7456296800000004
   Te   Au   O 
    16     8     1
Selective dynamics
Direct
  0.6361740999999981  0.9419846699999965  0.4145147566762475   F   F   F
  0.8623008100000007  0.0643471699999978  0.4834764129262439   F   F   F
  0.3623008100000007  0.0643471699999978  0.4869988379262438   F   F   F
  0.6124078200000014  0.5639733900000010  0.3682567779262484   F   F   F
  0.1124078200000014  0.5639733900000010  0.4771250279262489   F   F   F
  0.1361740999999981  0.9419846699999965  0.4003698691762452   F   F   F
  0.8832581599999969  0.4426067300000014  0.4011550379262445   F   F   F
  0.3832581599999969  0.4426067300000014  0.4138851029262440   F   F   F
  0.6246210099999985  0.2525398800000005  0.4476333091762470   F   F   F
  0.3736381000000009  0.7528481599999992  0.4468165354262439   F   F   F
  0.8736381000000009  0.7528481599999992  0.4457839629262494   F   F   F
  0.1246210099999985  0.2525398800000005  0.4448901191762431   F   F   F
  0.5843320904219880  0.9826218120351200  0.5523540306361383   T   T   T
  0.8566995400463924  0.0761779197719719  0.6011752394008383   T   T   T
  0.3344680827907993  0.0991178496521883  0.6164106981889574   T   T   T
  0.6124078200000014  0.5639733900000010  0.4932567779262484   F   F   F
  0.0291147744280025  0.6091320586236080  0.6181011230551618   T   T   T
  0.1369816352334681  0.9535491350476590  0.5257816856839668   T   T   T
  0.8516043643228315  0.4815461559485144  0.5355723267367978   T   T   T
  0.3943303736741584  0.4862910774907618  0.5565425861859978   T   T   T
  0.6433892208066823  0.2588788313893957  0.5709578569650589   T   T   T
  0.3779238606475204  0.7821463542631264  0.5774099883268633   T   T   T
  0.8455362157473019  0.7869458372480835  0.5763056917157030   T   T   T
  0.1079267303360680  0.2725691267457506  0.5710708182106004   T   T   T
  0.2352448885464185  0.5770586963794386  0.6116944780448819   T   T   T
 
  0.00000000E+00  0.00000000E+00  0.00000000E+00
  0.00000000E+00  0.00000000E+00  0.00000000E+00
  0.00000000E+00  0.00000000E+00  0.00000000E+00
  0.00000000E+00  0.00000000E+00  0.00000000E+00
  0.00000000E+00  0.00000000E+00  0.00000000E+00
  0.00000000E+00  0.00000000E+00  0.00000000E+00
  0.00000000E+00  0.00000000E+00  0.00000000E+00
  0.00000000E+00  0.00000000E+00  0.00000000E+00
  0.00000000E+00  0.00000000E+00  0.00000000E+00
  0.00000000E+00  0.00000000E+00  0.00000000E+00
  0.00000000E+00  0.00000000E+00  0.00000000E+00
  0.00000000E+00  0.00000000E+00  0.00000000E+00
  0.00000000E+00  0.00000000E+00  0.00000000E+00
  0.00000000E+00  0.00000000E+00  0.00000000E+00
  0.00000000E+00  0.00000000E+00  0.00000000E+00
  0.00000000E+00  0.00000000E+00  0.00000000E+00
  0.00000000E+00  0.00000000E+00  0.00000000E+00
  0.00000000E+00  0.00000000E+00  0.00000000E+00
  0.00000000E+00  0.00000000E+00  0.00000000E+00
  0.00000000E+00  0.00000000E+00  0.00000000E+00
  0.00000000E+00  0.00000000E+00  0.00000000E+00
  0.00000000E+00  0.00000000E+00  0.00000000E+00
  0.00000000E+00  0.00000000E+00  0.00000000E+00
  0.00000000E+00  0.00000000E+00  0.00000000E+00
  0.00000000E+00  0.00000000E+00  0.00000000E+00
