Te Au O
 1.0000000000000000
    10.3816238299313373    0.0000000000000000    0.0000000000000006
     5.1807364356534356    7.4076454022250253   -4.4682037099999983
     0.0000000000000000    0.0000000000000000   35.7456296800000004
Te Au O
16 8 1
Selective dynamics
Cartesian
 11.4846944982410992  6.9778884096919578 10.6081115917872708   F   F   F
  9.2854483658152791  0.4766610179966938 16.9946525517543527   F   F   F
  4.0946364508496105  0.4766610179966938 17.1205638513799272   F   F   F
  9.2795851080602851  4.1777148894107619 10.6436224173623124   F   F   F
  4.0887731930946165  4.1777148894107610 14.5351865657719728   F   F   F
  6.2938825832754306  6.9778884096919578 10.1024936813470099   F   F   F
 11.4626827746137252  3.2786737084783537 12.3618823969209757   F   F   F
  6.2718708596480592  3.2786737084783546 12.8169265862133077   F   F   F
  7.7929229198633259  1.8707258809604601 14.8725348735080800   F   F   F
  7.7792780957569150  5.5768322109975710 12.6078594686685186   F   F   F
 12.9700900107225845  5.5768322109975710 12.5709495144657666   F   F   F
  2.6021110048976572  1.8707258809604601 14.7744778196262025   F   F   F
 11.1570205785966596  7.2789139480480012 15.3536882053125190   T   T   T
  9.2885900845918119  0.5642990171499241 21.1490090166624611   T   T   T
  3.9858252737691133  0.7342298832544748 21.5911098047095500   T   T   T
  9.2795851080602851  4.1777148894107619 15.1118261273623133   F   F   F
  3.4580112862407395  4.5122342934110362 19.3726877252999223   T   T   T
  6.3621785557299377  7.0635538660314419 14.5337456460979126   T   T   T
 11.3357998778987650  3.5671231680711655 16.9927237378441767   T   T   T
  6.6131355076909113  3.6022718643174905 17.7211175903701097   T   T   T
  8.0206078608460523  1.9176825850750239 19.2525247631047556   T   T   T
  7.9755574731424232  5.7938628450243126 17.1450943743835893   T   T   T
 12.8549978983890707  5.8294157130909010 17.0841755289848471   T   T   T
  2.5325635217094407  2.0190954385266444 19.1953916054539846   T   T   T
  5.4318129546466896  4.2746461990491120 19.2869884814427408   T   T   T
