H Pd O                                  
   1.00000000000000     
     8.8308406688682037    0.0000000000000000    0.0000000000000005
    -0.0000000000000005    8.8308406688682037    0.0000000000000005
     0.0000000000000000    0.0000000000000000   29.1402874958283853
   H    Pd   O 
    37    36     1
Selective dynamics
Direct
  0.0000000000000000  0.0000000000000000  0.5357142857142847   F   F   F
  0.1572299838633242  0.1695625061480470  0.6090883211816660   T   T   T
  0.3333333333333357  0.0000000000000000  0.3928571428571459   F   F   F
  0.1666666666666643  0.1666666666666643  0.4642857142857153   F   F   F
  0.9982876624767627  0.0016829792552571  0.6055775292615948   T   T   T
  0.1666666666666643  0.1666666666666643  0.5357142857142847   F   F   F
  0.0000000000000000  0.0000000000000000  0.4642857142857153   F   F   F
  0.1666666666666643  0.1666666666666643  0.3928571428571459   F   F   F
  0.0000000000000000  0.3333333333333357  0.5357142857142847   F   F   F
  0.1714906350549441  0.5332464373055288  0.6132916462306781   T   T   T
  0.3333333333333357  0.3333333333333357  0.3928571428571459   F   F   F
  0.1666666666666643  0.5000000000000000  0.4642857142857153   F   F   F
  0.9979558410024012  0.3325374028601900  0.6057765640705313   T   T   T
  0.1666666666666643  0.5000000000000000  0.5357142857142847   F   F   F
  0.0000000000000000  0.3333333333333357  0.4642857142857153   F   F   F
  0.1666666666666643  0.5000000000000000  0.3928571428571459   F   F   F
  0.0000000000000000  0.6666666666666643  0.5357142857142847   F   F   F
  0.1743630418929740  0.8036608797706393  0.6102979817532557   T   T   T
  0.3333333333333357  0.6666666666666643  0.3928571428571459   F   F   F
  0.1666666666666643  0.8333333333333357  0.4642857142857153   F   F   F
  0.0047043492881826  0.6662615615618890  0.6054956449428417   T   T   T
  0.1666666666666643  0.8333333333333357  0.5357142857142847   F   F   F
  0.0000000000000000  0.6666666666666643  0.4642857142857153   F   F   F
  0.1666666666666643  0.8333333333333357  0.3928571428571459   F   F   F
  0.3333333333333357  0.0000000000000000  0.5357142857142847   F   F   F
  0.5458716272302908  0.1679516976256750  0.6141467174814821   T   T   T
  0.6666666666666643  0.0000000000000000  0.3928571428571459   F   F   F
  0.5000000000000000  0.1666666666666643  0.4642857142857153   F   F   F
  0.3316022606829847  0.0021677173109822  0.6044510881703999   T   T   T
  0.5000000000000000  0.1666666666666643  0.5357142857142847   F   F   F
  0.3333333333333357  0.0000000000000000  0.4642857142857153   F   F   F
  0.5000000000000000  0.1666666666666643  0.3928571428571459   F   F   F
  0.3333333333333357  0.3333333333333357  0.5357142857142847   F   F   F
  0.4969730512909578  0.4401591815520263  0.6041955919403605   T   T   T
  0.6666666666666643  0.3333333333333357  0.3928571428571459   F   F   F
  0.5000000000000000  0.5000000000000000  0.4642857142857153   F   F   F
  0.3296387741248168  0.3309187098032425  0.6047541549841995   T   T   T
  0.5000000000000000  0.5000000000000000  0.5357142857142847   F   F   F
  0.3333333333333357  0.3333333333333357  0.4642857142857153   F   F   F
  0.5000000000000000  0.5000000000000000  0.3928571428571459   F   F   F
  0.3333333333333357  0.6666666666666643  0.5357142857142847   F   F   F
  0.4980003625604112  0.8907142360693570  0.6031483756452687   T   T   T
  0.6666666666666643  0.6666666666666643  0.3928571428571459   F   F   F
  0.5000000000000000  0.8333333333333357  0.4642857142857153   F   F   F
  0.3297685030565418  0.6669524096579380  0.6082511971754201   T   T   T
  0.5000000000000000  0.8333333333333357  0.5357142857142847   F   F   F
  0.3333333333333357  0.6666666666666643  0.4642857142857153   F   F   F
  0.5000000000000000  0.8333333333333357  0.3928571428571459   F   F   F
  0.6666666666666643  0.0000000000000000  0.5357142857142847   F   F   F
  0.8670358110891883  0.1668286574286171  0.6114108581358266   T   T   T
  0.0000000000000000  0.0000000000000000  0.3928571428571459   F   F   F
  0.8333333333333357  0.1666666666666643  0.4642857142857153   F   F   F
  0.6669135038241549  0.0032783135875079  0.6055114172549665   T   T   T
  0.8333333333333357  0.1666666666666643  0.5357142857142847   F   F   F
  0.6666666666666643  0.0000000000000000  0.4642857142857153   F   F   F
  0.8333333333333357  0.1666666666666643  0.3928571428571459   F   F   F
  0.6666666666666643  0.3333333333333357  0.5357142857142847   F   F   F
  0.8551790369941656  0.4936385623127038  0.6084362724370962   T   T   T
  0.0000000000000000  0.3333333333333357  0.3928571428571459   F   F   F
  0.8333333333333357  0.5000000000000000  0.4642857142857153   F   F   F
  0.6669474667975521  0.3329188135354357  0.6056318246484977   T   T   T
  0.8333333333333357  0.5000000000000000  0.5357142857142847   F   F   F
  0.6666666666666643  0.3333333333333357  0.4642857142857153   F   F   F
  0.8333333333333357  0.5000000000000000  0.3928571428571459   F   F   F
  0.6666666666666643  0.6666666666666643  0.5357142857142847   F   F   F
  0.8542614861979700  0.8405440890656024  0.6078180782825982   T   T   T
  0.0000000000000000  0.6666666666666643  0.3928571428571459   F   F   F
  0.8333333333333357  0.8333333333333357  0.4642857142857153   F   F   F
  0.6777425571486049  0.6669683013182350  0.6082967501848699   T   T   T
  0.8333333333333357  0.8333333333333357  0.5357142857142847   F   F   F
  0.6666666666666643  0.6666666666666643  0.4642857142857153   F   F   F
  0.8333333333333357  0.8333333333333357  0.3928571428571459   F   F   F
  0.5127302122845308  0.5751106416090224  0.6779853568794749   T   T   T
  0.5095799460574426  0.6731128216198385  0.6624276573330405   T   T   T
 
  0.00000000E+00  0.00000000E+00  0.00000000E+00
  0.00000000E+00  0.00000000E+00  0.00000000E+00
  0.00000000E+00  0.00000000E+00  0.00000000E+00
  0.00000000E+00  0.00000000E+00  0.00000000E+00
  0.00000000E+00  0.00000000E+00  0.00000000E+00
  0.00000000E+00  0.00000000E+00  0.00000000E+00
  0.00000000E+00  0.00000000E+00  0.00000000E+00
  0.00000000E+00  0.00000000E+00  0.00000000E+00
  0.00000000E+00  0.00000000E+00  0.00000000E+00
  0.00000000E+00  0.00000000E+00  0.00000000E+00
  0.00000000E+00  0.00000000E+00  0.00000000E+00
  0.00000000E+00  0.00000000E+00  0.00000000E+00
  0.00000000E+00  0.00000000E+00  0.00000000E+00
  0.00000000E+00  0.00000000E+00  0.00000000E+00
  0.00000000E+00  0.00000000E+00  0.00000000E+00
  0.00000000E+00  0.00000000E+00  0.00000000E+00
  0.00000000E+00  0.00000000E+00  0.00000000E+00
  0.00000000E+00  0.00000000E+00  0.00000000E+00
  0.00000000E+00  0.00000000E+00  0.00000000E+00
  0.00000000E+00  0.00000000E+00  0.00000000E+00
  0.00000000E+00  0.00000000E+00  0.00000000E+00
  0.00000000E+00  0.00000000E+00  0.00000000E+00
  0.00000000E+00  0.00000000E+00  0.00000000E+00
  0.00000000E+00  0.00000000E+00  0.00000000E+00
  0.00000000E+00  0.00000000E+00  0.00000000E+00
  0.00000000E+00  0.00000000E+00  0.00000000E+00
  0.00000000E+00  0.00000000E+00  0.00000000E+00
  0.00000000E+00  0.00000000E+00  0.00000000E+00
  0.00000000E+00  0.00000000E+00  0.00000000E+00
  0.00000000E+00  0.00000000E+00  0.00000000E+00
  0.00000000E+00  0.00000000E+00  0.00000000E+00
  0.00000000E+00  0.00000000E+00  0.00000000E+00
  0.00000000E+00  0.00000000E+00  0.00000000E+00
  0.00000000E+00  0.00000000E+00  0.00000000E+00
  0.00000000E+00  0.00000000E+00  0.00000000E+00
  0.00000000E+00  0.00000000E+00  0.00000000E+00
  0.00000000E+00  0.00000000E+00  0.00000000E+00
  0.00000000E+00  0.00000000E+00  0.00000000E+00
  0.00000000E+00  0.00000000E+00  0.00000000E+00
  0.00000000E+00  0.00000000E+00  0.00000000E+00
  0.00000000E+00  0.00000000E+00  0.00000000E+00
  0.00000000E+00  0.00000000E+00  0.00000000E+00
  0.00000000E+00  0.00000000E+00  0.00000000E+00
  0.00000000E+00  0.00000000E+00  0.00000000E+00
  0.00000000E+00  0.00000000E+00  0.00000000E+00
  0.00000000E+00  0.00000000E+00  0.00000000E+00
  0.00000000E+00  0.00000000E+00  0.00000000E+00
  0.00000000E+00  0.00000000E+00  0.00000000E+00
  0.00000000E+00  0.00000000E+00  0.00000000E+00
  0.00000000E+00  0.00000000E+00  0.00000000E+00
  0.00000000E+00  0.00000000E+00  0.00000000E+00
  0.00000000E+00  0.00000000E+00  0.00000000E+00
  0.00000000E+00  0.00000000E+00  0.00000000E+00
  0.00000000E+00  0.00000000E+00  0.00000000E+00
  0.00000000E+00  0.00000000E+00  0.00000000E+00
  0.00000000E+00  0.00000000E+00  0.00000000E+00
  0.00000000E+00  0.00000000E+00  0.00000000E+00
  0.00000000E+00  0.00000000E+00  0.00000000E+00
  0.00000000E+00  0.00000000E+00  0.00000000E+00
  0.00000000E+00  0.00000000E+00  0.00000000E+00
  0.00000000E+00  0.00000000E+00  0.00000000E+00
  0.00000000E+00  0.00000000E+00  0.00000000E+00
  0.00000000E+00  0.00000000E+00  0.00000000E+00
  0.00000000E+00  0.00000000E+00  0.00000000E+00
  0.00000000E+00  0.00000000E+00  0.00000000E+00
  0.00000000E+00  0.00000000E+00  0.00000000E+00
  0.00000000E+00  0.00000000E+00  0.00000000E+00
  0.00000000E+00  0.00000000E+00  0.00000000E+00
  0.00000000E+00  0.00000000E+00  0.00000000E+00
  0.00000000E+00  0.00000000E+00  0.00000000E+00
  0.00000000E+00  0.00000000E+00  0.00000000E+00
  0.00000000E+00  0.00000000E+00  0.00000000E+00
  0.00000000E+00  0.00000000E+00  0.00000000E+00
  0.00000000E+00  0.00000000E+00  0.00000000E+00
