Ga S Zn O                               
   1.00000000000000     
    10.5960429026038518    0.0000000000000000    0.8384011971130300
     5.2346806069340541   12.2124211163335410    1.2197270132613327
     0.0000000000000000    0.0000000000000000   33.6888360101871669
   Ga   S    Zn   O 
    16    32     8     1
Selective dynamics
Direct
  0.2182301486531202  0.2796552419245657  0.6044008848856066   T   T   T
  0.3928571428571459  0.4464285714285694  0.5357142857142847   F   F   F
  0.1071428571428541  0.0535714285714306  0.4642857142857153   F   F   F
  0.3214285714285694  0.1607142857142847  0.3928571428571459   F   F   F
  0.0893917894302092  0.2855983579111623  0.5522287848917813   T   T   T
  0.2450816004366843  0.5092355907499311  0.5933866743492544   T   T   T
  0.3797900294490404  0.1402678495196739  0.6332731420394069   T   T   T
  0.4378331699999976  0.1033092675000020  0.5164569749999970   F   F   F
  0.0246245578571447  0.0093175489285713  0.4084584807142875   F   F   F
  0.1667427757142832  0.2049681653571440  0.4486843764285737   F   F   F
  0.2993709249999981  0.3966907324999980  0.4835430250000030   F   F   F
  0.3664045985714282  0.3175949817857173  0.3735998321428582   F   F   F
  0.0244924089508984  0.1314357312509173  0.5758510925722007   T   T   T
  0.4642857142857153  0.3571428571428541  0.4285714285714306   F   F   F
  0.2230778880481949  0.8173327712416807  0.5957671592781750   T   T   T
  0.3928571428571459  0.9464285714285694  0.5357142857142847   F   F   F
  0.1071428571428541  0.5535714285714306  0.4642857142857153   F   F   F
  0.3214285714285694  0.6607142857142847  0.3928571428571459   F   F   F
  0.0861936612837795  0.7902938534434085  0.5521305947110520   T   T   T
  0.2379085504208192  0.9846684364394775  0.5920595917539231   T   T   T
  0.3756649086538388  0.6880834432342695  0.6316120465855519   T   T   T
  0.4378331699999976  0.6033092675000020  0.5164569749999970   F   F   F
  0.0246245578571447  0.5093175489285713  0.4084584807142875   F   F   F
  0.1667427757142832  0.7049681653571440  0.4486843764285737   F   F   F
  0.2993709249999981  0.8966907324999980  0.4835430250000030   F   F   F
  0.3664045985714282  0.8175949817857173  0.3735998321428582   F   F   F
  0.0246119089670458  0.6375080696947748  0.5766996267438813   T   T   T
  0.4642857142857153  0.8571428571428541  0.4285714285714306   F   F   F
  0.7206276102306148  0.3148048208938476  0.5962450604655558   T   T   T
  0.8928571428571459  0.4464285714285694  0.5357142857142847   F   F   F
  0.6071428571428541  0.0535714285714306  0.4642857142857153   F   F   F
  0.8214285714285694  0.1607142857142847  0.3928571428571459   F   F   F
  0.5752137421726644  0.2865147777204911  0.5563962035534047   T   T   T
  0.7397645637323222  0.4813663379977697  0.5926081983420843   T   T   T
  0.8693118189275211  0.1759753953045902  0.6300471820247466   T   T   T
  0.9378331699999976  0.1033092675000020  0.5164569749999970   F   F   F
  0.5246245578571447  0.0093175489285713  0.4084584807142875   F   F   F
  0.6667427757142832  0.2049681653571440  0.4486843764285737   F   F   F
  0.7993709249999981  0.3966907324999980  0.4835430250000030   F   F   F
  0.8664045985714282  0.3175949817857173  0.3735998321428582   F   F   F
  0.5269901050009764  0.1226090850646102  0.5776538691068822   T   T   T
  0.9642857142857153  0.3571428571428541  0.4285714285714306   F   F   F
  0.7217981847090513  0.8142519228006933  0.5950921192572451   T   T   T
  0.8928571428571459  0.9464285714285694  0.5357142857142847   F   F   F
  0.6071428571428541  0.5535714285714306  0.4642857142857153   F   F   F
  0.8214285714285694  0.6607142857142847  0.3928571428571459   F   F   F
  0.5861226428490482  0.7889861859053582  0.5508846227234798   T   T   T
  0.7437142215664707  0.9797335624139407  0.5930728480053347   T   T   T
  0.8644370697621113  0.6745369771927301  0.6296208866657906   T   T   T
  0.9378331699999976  0.6033092675000020  0.5164569749999970   F   F   F
  0.5246245578571447  0.5093175489285713  0.4084584807142875   F   F   F
  0.6667427757142832  0.7049681653571440  0.4486843764285737   F   F   F
  0.7993709249999981  0.8966907324999980  0.4835430250000030   F   F   F
  0.8664045985714282  0.8175949817857173  0.3735998321428582   F   F   F
  0.5262536068430421  0.6329935011242753  0.5769953374557701   T   T   T
  0.9642857142857153  0.8571428571428541  0.4285714285714306   F   F   F
  0.2158418306723746  0.4117622585326473  0.6204293511833114   T   T   T
 
  0.00000000E+00  0.00000000E+00  0.00000000E+00
  0.00000000E+00  0.00000000E+00  0.00000000E+00
  0.00000000E+00  0.00000000E+00  0.00000000E+00
  0.00000000E+00  0.00000000E+00  0.00000000E+00
  0.00000000E+00  0.00000000E+00  0.00000000E+00
  0.00000000E+00  0.00000000E+00  0.00000000E+00
  0.00000000E+00  0.00000000E+00  0.00000000E+00
  0.00000000E+00  0.00000000E+00  0.00000000E+00
  0.00000000E+00  0.00000000E+00  0.00000000E+00
  0.00000000E+00  0.00000000E+00  0.00000000E+00
  0.00000000E+00  0.00000000E+00  0.00000000E+00
  0.00000000E+00  0.00000000E+00  0.00000000E+00
  0.00000000E+00  0.00000000E+00  0.00000000E+00
  0.00000000E+00  0.00000000E+00  0.00000000E+00
  0.00000000E+00  0.00000000E+00  0.00000000E+00
  0.00000000E+00  0.00000000E+00  0.00000000E+00
  0.00000000E+00  0.00000000E+00  0.00000000E+00
  0.00000000E+00  0.00000000E+00  0.00000000E+00
  0.00000000E+00  0.00000000E+00  0.00000000E+00
  0.00000000E+00  0.00000000E+00  0.00000000E+00
  0.00000000E+00  0.00000000E+00  0.00000000E+00
  0.00000000E+00  0.00000000E+00  0.00000000E+00
  0.00000000E+00  0.00000000E+00  0.00000000E+00
  0.00000000E+00  0.00000000E+00  0.00000000E+00
  0.00000000E+00  0.00000000E+00  0.00000000E+00
  0.00000000E+00  0.00000000E+00  0.00000000E+00
  0.00000000E+00  0.00000000E+00  0.00000000E+00
  0.00000000E+00  0.00000000E+00  0.00000000E+00
  0.00000000E+00  0.00000000E+00  0.00000000E+00
  0.00000000E+00  0.00000000E+00  0.00000000E+00
  0.00000000E+00  0.00000000E+00  0.00000000E+00
  0.00000000E+00  0.00000000E+00  0.00000000E+00
  0.00000000E+00  0.00000000E+00  0.00000000E+00
  0.00000000E+00  0.00000000E+00  0.00000000E+00
  0.00000000E+00  0.00000000E+00  0.00000000E+00
  0.00000000E+00  0.00000000E+00  0.00000000E+00
  0.00000000E+00  0.00000000E+00  0.00000000E+00
  0.00000000E+00  0.00000000E+00  0.00000000E+00
  0.00000000E+00  0.00000000E+00  0.00000000E+00
  0.00000000E+00  0.00000000E+00  0.00000000E+00
  0.00000000E+00  0.00000000E+00  0.00000000E+00
  0.00000000E+00  0.00000000E+00  0.00000000E+00
  0.00000000E+00  0.00000000E+00  0.00000000E+00
  0.00000000E+00  0.00000000E+00  0.00000000E+00
  0.00000000E+00  0.00000000E+00  0.00000000E+00
  0.00000000E+00  0.00000000E+00  0.00000000E+00
  0.00000000E+00  0.00000000E+00  0.00000000E+00
  0.00000000E+00  0.00000000E+00  0.00000000E+00
  0.00000000E+00  0.00000000E+00  0.00000000E+00
  0.00000000E+00  0.00000000E+00  0.00000000E+00
  0.00000000E+00  0.00000000E+00  0.00000000E+00
  0.00000000E+00  0.00000000E+00  0.00000000E+00
  0.00000000E+00  0.00000000E+00  0.00000000E+00
  0.00000000E+00  0.00000000E+00  0.00000000E+00
  0.00000000E+00  0.00000000E+00  0.00000000E+00
  0.00000000E+00  0.00000000E+00  0.00000000E+00
  0.00000000E+00  0.00000000E+00  0.00000000E+00
