Ga S Zn O
 1.0000000000000000
    10.5960429026038518    0.0000000000000000    0.8384011971130300
     5.2346806069340541   12.2124211163335410    1.2197270132613327
     0.0000000000000000    0.0000000000000000   33.6888360101871669
Ga S Zn O
16 32 8 1
Selective dynamics
Cartesian
  3.7762818893000754  3.4152675817729552 20.8856297661756152   T   T   T
  6.4996421255470720  5.4519737126489014 18.9214836066720515   F   F   F
  1.4157196292218797  0.6542368455178713 15.7964165087022952   F   F   F
  4.2471588876656376  1.9627105365536033 13.7004135159197187   F   F   F
  2.4422154214728167  3.4878474169444900 19.0272431896818794   T   T   T
  5.2625808241251955  6.2189994816630039 20.8171114761306804   T   T   T
  4.7585288376801529  1.7130100474167262 21.8237399323144352   T   T   T
  5.1800900726018586  1.2616562799299562 17.8919232952461122   F   F   F
  0.3096972641924877  0.1137898312877549 13.7925008986651374   F   F   F
  2.8397564854017112  2.5031575507837212 15.5054569287487602   F   F   F
  5.2486964494604145  4.8445542782368225 17.0248490173363471   F   F   F
  5.5449471381874513  3.8786036620014279 13.2807167111244464   F   F   F
  0.9475466894692404  1.6051484997694390 19.5806032008510122   T   T   T
  6.7891201358282363  4.3615789701191252 15.2629470649045995   F   F   F
  6.6422188794114074  9.9816119945832984 21.2546537574738004   T   T   T
  9.1169824290140991 11.5581842708156728 19.5313471133027186   F   F   F
  4.0330599326889072  6.7604474036846423 16.4062800153329604   F   F   F
  6.8644991911326647  8.0689210947203733 14.3102770225503857   F   F   F
  5.0502476412948338  9.6514013439008490 19.6368446916909285   T   T   T
  7.6753139756450928 12.0251856057605728 21.3462879993635930   T   T   T
  7.5824585453497120  8.4031647719536977 22.4325065316987100   T   T   T
  7.7974303760688857  7.3678668380967265 18.5017868018767793   F   F   F
  2.9270375676595148  6.2200003894545253 14.4023644052958044   F   F   F
  5.4570967888687383  8.6093681089504912 16.1153204353794273   F   F   F
  7.8660367529274415 10.9507648364035930 17.6347125239670142   F   F   F
  8.1622874416544775  9.9848142201681984 13.8905802177551134   F   F   F
  3.5979399725250416  7.7855170121735178 20.2265596202308338   T   T   T
  9.4064604392952624 10.4677895282858948 15.8728105715352665   F   F   F
  9.2837037657068322  3.8445290422076006 21.0749530589475178   T   T   T
 11.7976635768489970  5.4519737126489014 19.3406842052285661   F   F   F
  6.7137410805238051  0.6542368455178713 16.2156171072588116   F   F   F
  9.5451803389675636  1.9627105365536033 14.1196141144762333   F   F   F
  7.5948028407623251  3.4990391215753363 19.5760701623189384   T   T   T
 10.3583760894815029  5.8786484308560736 21.1716354337845054   T   T   T
 10.1324403181951208  2.1490856335729474 22.1690302068879497   T   T   T
 10.4781115239037845  1.2616562799299562 18.3111238938026268   F   F   F
  5.6077187154944133  0.1137898312877549 14.2117014972216520   F   F   F
  8.1377779367036371  2.5031575507837212 15.9246575273052748   F   F   F
 10.5467179007623404  4.8445542782368225 17.4440496158928617   F   F   F
 10.8429685894893773  3.8786036620014279 13.6999173096809610   F   F   F
  6.2258291616596857  1.4973537794973710 20.0518652150160044   T   T   T
 12.0871415871301622  4.3615789701191252 15.6821476634611141   F   F   F
 11.9105532816422617  9.9439873760263513 21.6462823445861794   T   T   T
 14.4150038803160250 11.5581842708156728 19.9505477118592331   F   F   F
  9.3310813839908331  6.7604474036846423 16.8254806138894750   F   F   F
 12.1625206424345897  8.0689210947203733 14.7294776211069003   F   F   F
 10.3406713563136989  9.6354315572460987 20.0124154049236900   T   T   T
 13.0090200781256176 11.9649188460046680 21.7984723040927797   T   T   T
 12.6905979109711993  8.2377296240163105 22.7586908461156305   T   T   T
 13.0954518273708125  7.3678668380967265 18.9209874004332939   F   F   F
  8.2250590189614403  6.2200003894545253 14.8215650038523190   F   F   F
 10.7551182401706633  8.6093681089504912 16.5345210339359419   F   F   F
 13.1640582042293666 10.9507648364035930 18.0539131225235288   F   F   F
 13.4603088929564052  9.9848142201681984 14.3097808163116280   F   F   F
  8.8897246004094015  7.7303831996320183 20.6515922286924827   T   T   T
 14.7044818905971901 10.4677895282858948 16.2920111700917793   F   F   F
  4.4425132073892613  5.0286141010132530 21.5847422669178641   T   T   T
