Al In Cl
 1.0000000000000000
    14.5280904599999996    0.0000000000000000    0.0000000000000009
    -0.0000000000000007   11.1979029200000006    0.0000000000000007
     0.0000000000000000    0.0000000000000000   38.3577098800000016
Al In Cl
8 8 32
Selective dynamics
Cartesian
  5.4480339224999996  6.3491941587856200 16.1943266883531329   F   F   F
  1.8160113074999993 10.4476602212143810 20.9890404233531349   F   F   F
  1.8161654621189398  4.8363264488567221 22.1954426798246338   T   T   T
  5.4480339225000005  0.7502426987856196 17.3686694566468667   F   F   F
  5.4451553178294851  7.7513070169609239 21.0074034040712014   T   T   T
  5.4440220878337557  2.1216678805092886 21.8698949911947622   T   T   T
  1.8160113074999997  3.5178317283467448 17.3857301988472948   F   F   F
  1.8160113074999993  9.1167831883467461 16.1772659461527084   F   F   F
  0.0348667633399290  4.7589533141074707 20.8749171265040410   F   F   F
  1.8164043978821893  3.0963085048896293 23.4648001250558060   T   T   T
  3.5948375230352458 10.3933286266398746 22.2381413207227503   T   T   T
  5.4480339224999987  8.0962098995468796 14.8763715994316588   F   F   F
  3.6668893783399303  0.8399981458925294 16.0802033915040390   F   F   F
  5.4480339224999996  2.4972584395468793 18.6866245455683426   F   F   F
  7.2291784666600707  0.8399981458925294 16.0802033915040390   F   F   F
  3.5971558516600699  4.7589533141074707 20.8749171265040410   F   F   F
  5.4480339224999996  4.4814361339572271 15.0673195396196373   F   F   F
  0.0378486461733387 10.3938738934518433 22.2385732405569776   T   T   T
  1.8160113074999999  1.1175153260427730 19.8620332746196375   F   F   F
  5.4480339224999987 10.0803875939572283 18.4956766053803641   F   F   F
  1.8156898923339011  6.6709196360037186 23.2982748948434519   T   T   T
  7.2291784666600707  6.4389496058925300 17.4827927534959642   F   F   F
  3.6668893783399290  6.4389496058925300 17.4827927534959642   F   F   F
  1.8160113074999995  8.7006444804531213 19.6710853344316590   F   F   F
 12.7120791524999994  6.3491941587856200 16.1943266883531329   F   F   F
  9.0800565374999991 10.4476602212143810 20.9890404233531349   F   F   F
  9.0800193810052718  4.8372967133460190 22.1946693245180420   T   T   T
 12.7120791524999994  0.7502426987856196 17.3686694566468667   F   F   F
 12.7150091881661673  7.7498089403909365 21.0025562150307543   T   T   T
 12.7168702153474023  2.1210520629563905 21.8706323426765650   T   T   T
  9.0800565374999991  3.5178317283467448 17.3857301988472948   F   F   F
  9.0800565374999991  9.1167831883467461 16.1772659461527084   F   F   F
  7.2989119933399289  4.7589533141074707 20.8749171265040410   F   F   F
  9.0807997697229297  3.1004196581233092 23.4678578637818624   T   T   T
 10.8585318484715714 10.3950487358958590 22.2385980543009261   T   T   T
 12.7120791524999994  8.0962098995468796 14.8763715994316588   F   F   F
 10.9309346083399301  0.8399981458925294 16.0802033915040390   F   F   F
 12.7120791524999994  2.4972584395468793 18.6866245455683426   F   F   F
 14.4932236966600705  0.8399981458925294 16.0802033915040390   F   F   F
 10.8612010816600701  4.7589533141074707 20.8749171265040410   F   F   F
 12.7120791524999994  4.4814361339572271 15.0673195396196373   F   F   F
  7.3007568885868332 10.3954784477825406 22.2380294583677802   T   T   T
  9.0800565374999991  1.1175153260427730 19.8620332746196375   F   F   F
 12.7120791524999994 10.0803875939572283 18.4956766053803641   F   F   F
  9.0801168900167823  6.6709903396416212 23.2999877457423636   T   T   T
 14.4932236966600705  6.4389496058925300 17.4827927534959642   F   F   F
 10.9309346083399284  6.4389496058925300 17.4827927534959642   F   F   F
  9.0800565374999991  8.7006444804531213 19.6710853344316590   F   F   F
