In Cu Se O                              
   1.00000000000000     
     8.4502271495309422    0.0000000000000000    0.0000000000000005
    -0.0000000000000008   13.7747342905269683   -4.7927822649817520
     0.0000000000000000    0.0000000000000000   36.4618007829892363
   In   Cu   Se   O 
    16    16    32     1
Selective dynamics
Direct
  0.2500000000000000  0.0000000000000000  0.3382599231601873   F   F   F
  0.2500000000000000  0.2500000000000000  0.4382599231601887   F   F   F
  0.0000000000000000  0.0000000000000000  0.4382599231601887   F   F   F
  0.0000000000000000  0.2500000000000000  0.3382599231601873   F   F   F
  0.2500000000000000  0.4452910600000024  0.4601434991601892   F   F   F
  0.2500000000000000  0.1952910600000024  0.3601434991601877   F   F   F
  0.0000000000000000  0.4297089399999976  0.3663763471601840   F   F   F
  0.0000000000000000  0.1797089399999976  0.4663763471601854   F   F   F
  0.2500000000000000  0.0000000000000000  0.5382599231601830   F   F   F
  0.2529389528710055  0.2280283087545811  0.6391327492513241   T   T   T
  0.9991717844629591  0.9953495642995378  0.6405285536055914   T   T   T
  0.0000000000000000  0.2500000000000000  0.5382599231601830   F   F   F
  0.2494125923752009  0.4899180753055887  0.6616662701818328   T   T   T
  0.2500000000000000  0.1952910600000024  0.5601434991601835   F   F   F
  0.0000000000000000  0.4297089399999976  0.5663763471601868   F   F   F
  0.9941092694311138  0.1764572455560653  0.6666135339518675   T   T   T
  0.2500000000000000  0.5000000000000000  0.3382599231601873   F   F   F
  0.2500000000000000  0.7500000000000000  0.4382599231601887   F   F   F
  0.0000000000000000  0.5000000000000000  0.4382599231601887   F   F   F
  0.0000000000000000  0.7500000000000000  0.3382599231601873   F   F   F
  0.2500000000000000  0.9452910600000024  0.4601434991601892   F   F   F
  0.2500000000000000  0.6952910600000024  0.3601434991601877   F   F   F
  0.0000000000000000  0.9297089399999976  0.3663763471601840   F   F   F
  0.0000000000000000  0.6797089399999976  0.4663763471601854   F   F   F
  0.2500000000000000  0.5000000000000000  0.5382599231601830   F   F   F
  0.2522125376363817  0.7600632941426326  0.6401816872447554   T   T   T
  0.9815410099063868  0.5135008456268864  0.6390240361202189   T   T   T
  0.0000000000000000  0.7500000000000000  0.5382599231601830   F   F   F
  0.2516044764141796  0.9503639383476070  0.6625536493117323   T   T   T
  0.2500000000000000  0.6952910600000024  0.5601434991601835   F   F   F
  0.0000000000000000  0.9297089399999976  0.5663763471601868   F   F   F
  0.0016099339846960  0.6907420402855777  0.6677620210816002   T   T   T
  0.7500000000000000  0.0000000000000000  0.3382599231601873   F   F   F
  0.7500000000000000  0.2500000000000000  0.4382599231601887   F   F   F
  0.5000000000000000  0.0000000000000000  0.4382599231601887   F   F   F
  0.5000000000000000  0.2500000000000000  0.3382599231601873   F   F   F
  0.7500000000000000  0.4452910600000024  0.4601434991601892   F   F   F
  0.7500000000000000  0.1952910600000024  0.3601434991601877   F   F   F
  0.5000000000000000  0.4297089399999976  0.3663763471601840   F   F   F
  0.5000000000000000  0.1797089399999976  0.4663763471601854   F   F   F
  0.7500000000000000  0.0000000000000000  0.5382599231601830   F   F   F
  0.7544878157539117  0.2567890002298014  0.6397456850290766   T   T   T
  0.5031094634745799  0.9957375388449137  0.6406547444156345   T   T   T
  0.5000000000000000  0.2500000000000000  0.5382599231601830   F   F   F
  0.7521122582930531  0.4491771983940041  0.6623360961217344   T   T   T
  0.7500000000000000  0.1952910600000024  0.5601434991601835   F   F   F
  0.5000000000000000  0.4297089399999976  0.5663763471601868   F   F   F
  0.5125617804496017  0.1769964886352255  0.6664011738799118   T   T   T
  0.7500000000000000  0.5000000000000000  0.3382599231601873   F   F   F
  0.7500000000000000  0.7500000000000000  0.4382599231601887   F   F   F
  0.5000000000000000  0.5000000000000000  0.4382599231601887   F   F   F
  0.5000000000000000  0.7500000000000000  0.3382599231601873   F   F   F
  0.7500000000000000  0.9452910600000024  0.4601434991601892   F   F   F
  0.7500000000000000  0.6952910600000024  0.3601434991601877   F   F   F
  0.5000000000000000  0.9297089399999976  0.3663763471601840   F   F   F
  0.5000000000000000  0.6797089399999976  0.4663763471601854   F   F   F
  0.7500000000000000  0.5000000000000000  0.5382599231601830   F   F   F
  0.7509076786554729  0.7587451921145671  0.6400354645368935   T   T   T
  0.5188944448146842  0.5106625076399425  0.6393525658137449   T   T   T
  0.5000000000000000  0.7500000000000000  0.5382599231601830   F   F   F
  0.7510955075567267  0.9490201468334050  0.6634109493873623   T   T   T
  0.7500000000000000  0.6952910600000024  0.5601434991601835   F   F   F
  0.5000000000000000  0.9297089399999976  0.5663763471601868   F   F   F
  0.5013018004231853  0.6893523229429306  0.6676752751982207   T   T   T
  0.2496776105128689  0.3810647160610614  0.6724899816484324   T   T   T
 
  0.00000000E+00  0.00000000E+00  0.00000000E+00
  0.00000000E+00  0.00000000E+00  0.00000000E+00
  0.00000000E+00  0.00000000E+00  0.00000000E+00
  0.00000000E+00  0.00000000E+00  0.00000000E+00
  0.00000000E+00  0.00000000E+00  0.00000000E+00
  0.00000000E+00  0.00000000E+00  0.00000000E+00
  0.00000000E+00  0.00000000E+00  0.00000000E+00
  0.00000000E+00  0.00000000E+00  0.00000000E+00
  0.00000000E+00  0.00000000E+00  0.00000000E+00
  0.00000000E+00  0.00000000E+00  0.00000000E+00
  0.00000000E+00  0.00000000E+00  0.00000000E+00
  0.00000000E+00  0.00000000E+00  0.00000000E+00
  0.00000000E+00  0.00000000E+00  0.00000000E+00
  0.00000000E+00  0.00000000E+00  0.00000000E+00
  0.00000000E+00  0.00000000E+00  0.00000000E+00
  0.00000000E+00  0.00000000E+00  0.00000000E+00
  0.00000000E+00  0.00000000E+00  0.00000000E+00
  0.00000000E+00  0.00000000E+00  0.00000000E+00
  0.00000000E+00  0.00000000E+00  0.00000000E+00
  0.00000000E+00  0.00000000E+00  0.00000000E+00
  0.00000000E+00  0.00000000E+00  0.00000000E+00
  0.00000000E+00  0.00000000E+00  0.00000000E+00
  0.00000000E+00  0.00000000E+00  0.00000000E+00
  0.00000000E+00  0.00000000E+00  0.00000000E+00
  0.00000000E+00  0.00000000E+00  0.00000000E+00
  0.00000000E+00  0.00000000E+00  0.00000000E+00
  0.00000000E+00  0.00000000E+00  0.00000000E+00
  0.00000000E+00  0.00000000E+00  0.00000000E+00
  0.00000000E+00  0.00000000E+00  0.00000000E+00
  0.00000000E+00  0.00000000E+00  0.00000000E+00
  0.00000000E+00  0.00000000E+00  0.00000000E+00
  0.00000000E+00  0.00000000E+00  0.00000000E+00
  0.00000000E+00  0.00000000E+00  0.00000000E+00
  0.00000000E+00  0.00000000E+00  0.00000000E+00
  0.00000000E+00  0.00000000E+00  0.00000000E+00
  0.00000000E+00  0.00000000E+00  0.00000000E+00
  0.00000000E+00  0.00000000E+00  0.00000000E+00
  0.00000000E+00  0.00000000E+00  0.00000000E+00
  0.00000000E+00  0.00000000E+00  0.00000000E+00
  0.00000000E+00  0.00000000E+00  0.00000000E+00
  0.00000000E+00  0.00000000E+00  0.00000000E+00
  0.00000000E+00  0.00000000E+00  0.00000000E+00
  0.00000000E+00  0.00000000E+00  0.00000000E+00
  0.00000000E+00  0.00000000E+00  0.00000000E+00
  0.00000000E+00  0.00000000E+00  0.00000000E+00
  0.00000000E+00  0.00000000E+00  0.00000000E+00
  0.00000000E+00  0.00000000E+00  0.00000000E+00
  0.00000000E+00  0.00000000E+00  0.00000000E+00
  0.00000000E+00  0.00000000E+00  0.00000000E+00
  0.00000000E+00  0.00000000E+00  0.00000000E+00
  0.00000000E+00  0.00000000E+00  0.00000000E+00
  0.00000000E+00  0.00000000E+00  0.00000000E+00
  0.00000000E+00  0.00000000E+00  0.00000000E+00
  0.00000000E+00  0.00000000E+00  0.00000000E+00
  0.00000000E+00  0.00000000E+00  0.00000000E+00
  0.00000000E+00  0.00000000E+00  0.00000000E+00
  0.00000000E+00  0.00000000E+00  0.00000000E+00
  0.00000000E+00  0.00000000E+00  0.00000000E+00
  0.00000000E+00  0.00000000E+00  0.00000000E+00
  0.00000000E+00  0.00000000E+00  0.00000000E+00
  0.00000000E+00  0.00000000E+00  0.00000000E+00
  0.00000000E+00  0.00000000E+00  0.00000000E+00
  0.00000000E+00  0.00000000E+00  0.00000000E+00
  0.00000000E+00  0.00000000E+00  0.00000000E+00
  0.00000000E+00  0.00000000E+00  0.00000000E+00
