Tl Sb Se O
 1.0000000000000000
    13.9467218847082055   -0.0000000000000000   -0.0000000000000009
    -6.9733609423541054   12.0782154516736888   -0.0000000000000037
    -0.0000000000000000    0.0000000000000063   51.2435283030636342
Tl Sb Se O
36 12 36 1
Selective dynamics
Cartesian
  6.2376772205589370  7.4690065872279607 29.1134782705324255   F   F   F
 -0.7356837217951655  3.4429347700033968 23.4197529035253460   F   F   F
 -0.7356837217951711 11.4950784044525243 17.7260275365182807   F   F   F
  4.4967034647398085  1.4298988613911159 29.1134782705324220   F   F   F
  4.4967034647398041  9.4820424958402452 23.4197529035253460   F   F   F
 -2.4766574776142933  5.4559706786156772 17.7260275365182771   F   F   F
 10.5972110494149501  2.9417252244481666 29.1134782705324220   F   F   F
 -3.3495108352932577 10.9938688588972955 23.4197529035253460   F   F   F
  3.6238501070608429  6.9677970416727311 17.7260275365182807   F   F   F
 -6.7916970307026627 12.0226833413533782 33.2320779098228414   T   T   T
  0.1371696358837955  7.9729487082469772 27.6881147061401016   F   F   F
  7.1105305782378956  3.9468768910224163 21.9943893391330398   F   F   F
  2.7904816925119142  5.5844441205137336 30.4554685223985544   T   T   T
  9.9022079628164157  1.5325807632748472 24.7705771761499953   F   F   F
 -4.0445139218917934  9.5847243977239742 19.0768518091429300   F   F   F
  0.8778874805342047 11.5101978014191939 30.6169449255113904   T   T   T
  7.8055336648364380  7.5716884891116880 24.7705771761499953   F   F   F
  0.8321727224823317  3.5456166718871280 19.0768518091429335   F   F   F
 -3.2177350860716962  6.8777194815172606 30.4347453564761636   T   T   T
  3.6238501070608464  2.7363614206807081 24.7705771761499953   F   F   F
  3.6238501070608464 10.7885050551298338 19.0768518091429229   F   F   F
 -6.8361913064703090 11.9990205254715434 29.3293672552732296   F   F   F
  0.1371696358837946  7.9729487082469772 23.6356418882661536   F   F   F
  7.1105305782378974  3.9468768910224101 17.9419165212590777   F   F   F
 -4.5499307104111422  9.2929218788193726 27.8237753995382988   F   F   F
  2.4234302319429615  5.2668500615948064 22.1300500325312228   F   F   F
  8.9773665681009547  1.5103868911470060 33.7901489979045593   T   T   T
  1.3375895110016791  3.2538141529825264 27.8237753995382953   F   F   F
  1.3375895110016778 11.3059577874316552 22.1300500325312228   F   F   F
  8.3319192318075714  7.0911004309801333 33.5221724751096417   T   T   T
  3.6238501070608491 11.3721100929390335 27.8237753995382988   F   F   F
 -3.3495108352932581  7.3460382757144709 22.1300500325312228   F   F   F
  3.7895915593077945  3.4630778668069611 33.5528045226816332   T   T   T
 -6.8361913064703064 11.9990205254715399 20.1697725851083369   F   F   F
  0.2572849061562312  8.0367358418108701 31.9731471154983531   T   T   T
  7.1105305782379009  3.9468768910224155 25.8634979521154094   F   F   F
 -6.8361913064703090 11.9990205254715434 25.0721393048646384   F   F   F
  0.1371696358837937  7.9729487082469772 19.3784139378575730   F   F   F
  7.0615660951565324  4.0292425080365621 30.8075974811961686   T   T   T
 -3.2676829191883732 10.4809562032495993 31.9724897696883801   T   T   T
  3.6238501070608500  6.7501144244017945 26.1896531596195246   F   F   F
 10.5972110494149554  2.7240426071772297 20.4959277926124557   F   F   F
  4.3816297733215421  9.6380857876334307 31.8148386730914190   T   T   T
 -2.6651761541332100  5.5648119872511455 26.1896531596195281   F   F   F
  4.3081847882208910  1.5387401700265826 20.4959277926124663   F   F   F
 -0.3570457883559530  3.7378312987494393 31.9723590278150169   T   T   T
 -0.5471650452762535 11.6039197130879934 26.1896531596195317   F   F   F
  6.4261958970778510  7.5778478958634263 20.4959277926124628   F   F   F
  2.5016268516733620  0.0791949262021554 26.2868963520999017   F   F   F
  2.5016268516733602  8.1313385606512814 20.5931709850928328   F   F   F
  9.3808058331713937  4.3863646024035825 31.9520598103697893   T   T   T
  3.2248933885729203  8.6928125232455091 29.6225539709102605   F   F   F
 10.1982543309270248  4.6667407060209456 23.9288286039031881   F   F   F
  3.2248933885729190  0.6406688887963858 18.2351032368961086   F   F   F
  1.0737142802216710  5.3806075883319391 33.3214427030013667   T   T   T
  7.5094872967258244  1.3578730002310215 27.7899710687873380   F   F   F
  7.5094872967258288  9.4100166346801490 22.0962457017802549   F   F   F
 -2.0301125915146789 10.2870640104451159 29.6225539709102534   F   F   F
  4.9432483508394283  6.2609921932205506 23.9288286039031881   F   F   F
 11.9166092931935275  2.2349203759959853 18.2351032368961192   F   F   F
 -2.5696432608792041  8.3799438729601459 33.2840105428019797   T   T   T
  4.6689090790718391  4.8958721831970884 27.7899710687873309   F   F   F
 11.6422700214259400  0.8698003659725261 22.0962457017802585   F   F   F
 -0.7832718894068571  4.9389695910503111 29.6225539709102570   F   F   F
  6.1900890529472452  0.9128977738257471 23.9288286039031810   F   F   F
  6.1900890529472461  8.9650414082748728 18.2351032368961157   F   F   F
 12.7644932768134218  1.8892901626308831 26.2868963520998911   F   F   F
 -1.1822286078947837  9.9414337970800144 20.5931709850928328   F   F   F
  5.5858451939666018  5.8190574996943996 32.0225165083864383   T   T   T
  6.0654716062269109  9.8721455842342021 26.2868963520998982   F   F   F
 -0.9078893361271940  5.8460737670096341 20.5931709850928186   F   F   F
  6.2270258886998455  1.8625300441742001 31.9917831473574523   T   T   T
  2.4113603590705228  9.8429986791005799 33.6597579164497418   T   T   T
  9.1531953589160366  5.5868854896391333 27.7899710687873345   F   F   F
  2.1798344165619312  1.5608136724145694 22.0962457017802585   F   F   F
  1.5811853263827118  2.0503397185990875 31.3291281259398886   F   F   F
  1.5811853263827098 10.1024833530482177 25.6354027589328233   F   F   F
  8.5545462687368179  6.0764115358236479 19.9416773919257437   F   F   F
 11.5176525747056040  0.1065920228326205 31.3291281259398886   F   F   F
 -2.4290693100026060  8.1587356572817491 25.6354027589328197   F   F   F
  4.5442916323514968  4.1326638400571838 19.9416773919257473   F   F   F
  8.2327538336253827  9.6836989316355346 31.3291281259398957   F   F   F
  1.2593928912712795  5.6576271144109693 25.6354027589328197   F   F   F
  8.2327538336253880  1.6315552971864045 19.9416773919257473   F   F   F
  1.3967673381983401 11.2232435970258155 33.1724713426568059   T   T   T
