Cu Ag S H O
 1.0000000000000000
     8.8942792555729042    0.0000000000000000    0.0000000000000005
    -0.0000000000000005    8.8942792555729042    0.0000000000000005
     0.0000000000000000    0.0000000000000000   35.8281553381818583
Cu Ag S H O
8 24 16 1 1
Selective dynamics
Cartesian
  0.0000000000000000  0.0000000000000000 16.0611030389030738   F   F   F
  0.0000000000000000  0.0000000000000000 19.7670522992787880   F   F   F
  4.4471396277864521  0.0000000000000000 13.0754234273879195   F   F   F
  4.4471396277864521  0.0000000000000000 16.7813726877636320   F   F   F
  4.2938582577613822  4.4062269984954803 23.0150182639078267   T   T   T
  4.4471396277864521  4.4471396277864521 13.7956930762484742   F   F   F
 -0.0000000000000003  4.4471396277864521 19.0467826504182298   F   F   F
 -0.1898120254736571  4.4402037158676073 22.7975867711247560   T   T   T
  6.3948386060645221  7.5214025142505703 15.1649976412543737   F   F   F
  2.4994406495083821  1.3728767413223337 15.1649976412543737   F   F   F
  7.5214025142505703  2.4994406495083812 20.6631576969274846   F   F   F
  6.9465802772948333  1.3728767413223337 17.6774780854123357   F   F   F
  5.8200163691087861  6.3948386060645230 12.1793180297392176   F   F   F
  5.8200163691087861  1.9476989782780709 14.6917984738971779   F   F   F
  7.9555344763156928  0.1100558200487285 22.3439543119794415   T   T   T
  1.9476989782780705  7.5214025142505703 17.6774780854123357   F   F   F
  7.5214025142505703  6.9465802772948333 18.1506772527695297   F   F   F
 -0.0000000000000001  2.2235698138932261 13.4355582518181986   F   F   F
  6.6707094416796782  4.4471396277864521 16.4212378633333493   F   F   F
 -0.0000000000000004  6.6707094416796782 13.4355582518181986   F   F   F
  1.9476989782780707  3.0742628864641182 21.1363568642846857   F   F   F
  6.9465802772948333  5.8200163691087861 21.1363568642846857   F   F   F
  3.0742628864641177  6.9465802772948333 14.6917984738971779   F   F   F
  1.9442074691018774  5.9032735000760264 23.8885500260653920   T   T   T
  1.3728767413223335  1.9476989782780709 18.1506772527695297   F   F   F
  1.3728767413223333  6.3948386060645230 20.6631576969274846   F   F   F
  2.2235698138932256  4.4471396277864521 16.4212378633333529   F   F   F
  6.4636461390335267  2.5910350925219126 23.2362758605009425   T   T   T
  3.0742628864641182  2.4994406495083812 12.1793180297392176   F   F   F
  4.4471396277864521  6.6707094416796782 19.4069174748485089   F   F   F
  4.6030539514134201 -0.0905047112360080 22.3147971421029290   T   T   T
  4.4471396277864521  2.2235698138932261 19.4069174748485089   F   F   F
  4.5569039280794783  6.6779235026410788 16.8398331305473903   F   F   F
  6.6634953807182775  0.1097643002930256 13.0169629846041612   F   F   F
  6.6779235026410779  8.7845149552798780 19.8255127420625428   F   F   F
  6.6634953807182775  4.5569039280794783 13.8541535190322342   F   F   F
  6.6779235026410788  4.3373753274934259 18.9883222076344715   F   F   F
  0.1097643002930252  6.6779235026410788 16.0026425961193155   F   F   F
  4.3373753274934259  2.2163557529318254 16.8398331305473903   F   F   F
  8.7845149552798780  2.2163557529318254 16.0026425961193155   F   F   F
  0.0363978407320957  2.3177041697798479 23.1938725490059916   T   T   T
  2.2163557529318250  4.5569039280794783 18.9883222076344715   F   F   F
  2.2307838748546263  4.3373753274934259 13.8541535190322342   F   F   F
  2.2163557529318254  0.1097643002930256 19.8255127420625428   F   F   F
  2.2307838748546263  8.7845149552798780 13.0169629846041612   F   F   F
  4.2860043728264960  2.3588902585851095 22.0883722201087842   T   T   T
  8.8183963401010210  6.6388109040448491 22.8354723838134817   T   T   T
  4.5166712603347676  6.4064214353524314 21.8997011348476391   T   T   T
  3.4764527233806337  4.3675447192096799 25.3953312910432238   T   T   T
  3.7312358448825385  5.0983671591648809 24.8033744465097499   T   T   T
