Ag Te O                                 
   1.00000000000000     
    10.3012648840885692    0.0000000000000000    0.0000000000000006
    -0.0000000000000010   15.5485699999999998    0.0000000000000010
     0.0000000000000000    0.0000000000000000   30.6628962163454162
   Ag   Te   O 
    32    16     1
Selective dynamics
Direct
  0.9923344693258613  0.1608737190275278  0.5646778481777801   T   T   T
  0.0000000000000000  0.4290033999999991  0.4018553887500005   F   F   F
  0.0000000000000000  0.0709966000000009  0.4731446112499995   F   F   F
  0.0000000000000000  0.3209966000000009  0.5268553887500005   F   F   F
  0.2500000000000000  0.1790033999999991  0.4731446112499995   F   F   F
  0.2500000000000000  0.4290033999999991  0.5268553887500005   F   F   F
  0.2412498894808408  0.0837492961821908  0.5702709111299313   T   T   T
  0.2500000000000000  0.3209966000000009  0.4018553887500005   F   F   F
  0.9977807189802306  0.9825525191004871  0.5723867401437488   T   T   T
  0.2510722756526818  0.2617806930829545  0.5695501974243840   T   T   T
  0.2500000000000000  0.0000000000000000  0.4375000000000000   F   F   F
  0.0000000000000000  0.2500000000000000  0.4375000000000000   F   F   F
  0.9961159340175527  0.6492759442779885  0.5606842079770686   T   T   T
  0.0000000000000000  0.9290033999999991  0.4018553887500005   F   F   F
  0.0000000000000000  0.5709966000000009  0.4731446112499995   F   F   F
  0.0000000000000000  0.8209966000000009  0.5268553887500005   F   F   F
  0.2500000000000000  0.6790033999999991  0.4731446112499995   F   F   F
  0.2500000000000000  0.9290033999999991  0.5268553887500005   F   F   F
  0.2450005137968461  0.5716058097868029  0.5856135790347992   T   T   T
  0.2500000000000000  0.8209966000000009  0.4018553887500005   F   F   F
  0.0027813192636756  0.4763283339699029  0.5828425682095286   T   T   T
  0.2490636863973705  0.7503072420814618  0.5605309343624967   T   T   T
  0.2500000000000000  0.5000000000000000  0.4375000000000000   F   F   F
  0.0000000000000000  0.7500000000000000  0.4375000000000000   F   F   F
  0.4918295296671928  0.1605730953509550  0.5647896791809046   T   T   T
  0.5000000000000000  0.4290033999999991  0.4018553887500005   F   F   F
  0.5000000000000000  0.0709966000000009  0.4731446112499995   F   F   F
  0.5000000000000000  0.3209966000000009  0.5268553887500005   F   F   F
  0.7500000000000000  0.1790033999999991  0.4731446112499995   F   F   F
  0.7500000000000000  0.4290033999999991  0.5268553887500005   F   F   F
  0.7424279332406840  0.0835783073442471  0.5706304790291981   T   T   T
  0.7500000000000000  0.3209966000000009  0.4018553887500005   F   F   F
  0.4994007743691711  0.9828493673753016  0.5730061374899549   T   T   T
  0.7494309543585373  0.2620043305382254  0.5693579704299765   T   T   T
  0.7500000000000000  0.0000000000000000  0.4375000000000000   F   F   F
  0.5000000000000000  0.2500000000000000  0.4375000000000000   F   F   F
  0.4692870083074396  0.6830575209055567  0.5963725373279942   T   T   T
  0.5000000000000000  0.9290033999999991  0.4018553887500005   F   F   F
  0.5000000000000000  0.5709966000000009  0.4731446112499995   F   F   F
  0.5000000000000000  0.8209966000000009  0.5268553887500005   F   F   F
  0.7500000000000000  0.6790033999999991  0.4731446112499995   F   F   F
  0.7500000000000000  0.9290033999999991  0.5268553887500005   F   F   F
  0.7581229174556654  0.5492351282776582  0.5978514460563602   T   T   T
  0.7500000000000000  0.8209966000000009  0.4018553887500005   F   F   F
  0.4993827537060014  0.4994493314777344  0.5607875702048020   T   T   T
  0.7582042399827316  0.7471120714678037  0.5571332800633684   T   T   T
  0.7500000000000000  0.5000000000000000  0.4375000000000000   F   F   F
  0.5000000000000000  0.7500000000000000  0.4375000000000000   F   F   F
  0.6821466424244136  0.6891939213104266  0.6095719848586256   T   T   T
 
  0.00000000E+00  0.00000000E+00  0.00000000E+00
  0.00000000E+00  0.00000000E+00  0.00000000E+00
  0.00000000E+00  0.00000000E+00  0.00000000E+00
  0.00000000E+00  0.00000000E+00  0.00000000E+00
  0.00000000E+00  0.00000000E+00  0.00000000E+00
  0.00000000E+00  0.00000000E+00  0.00000000E+00
  0.00000000E+00  0.00000000E+00  0.00000000E+00
  0.00000000E+00  0.00000000E+00  0.00000000E+00
  0.00000000E+00  0.00000000E+00  0.00000000E+00
  0.00000000E+00  0.00000000E+00  0.00000000E+00
  0.00000000E+00  0.00000000E+00  0.00000000E+00
  0.00000000E+00  0.00000000E+00  0.00000000E+00
  0.00000000E+00  0.00000000E+00  0.00000000E+00
  0.00000000E+00  0.00000000E+00  0.00000000E+00
  0.00000000E+00  0.00000000E+00  0.00000000E+00
  0.00000000E+00  0.00000000E+00  0.00000000E+00
  0.00000000E+00  0.00000000E+00  0.00000000E+00
  0.00000000E+00  0.00000000E+00  0.00000000E+00
  0.00000000E+00  0.00000000E+00  0.00000000E+00
  0.00000000E+00  0.00000000E+00  0.00000000E+00
  0.00000000E+00  0.00000000E+00  0.00000000E+00
  0.00000000E+00  0.00000000E+00  0.00000000E+00
  0.00000000E+00  0.00000000E+00  0.00000000E+00
  0.00000000E+00  0.00000000E+00  0.00000000E+00
  0.00000000E+00  0.00000000E+00  0.00000000E+00
  0.00000000E+00  0.00000000E+00  0.00000000E+00
  0.00000000E+00  0.00000000E+00  0.00000000E+00
  0.00000000E+00  0.00000000E+00  0.00000000E+00
  0.00000000E+00  0.00000000E+00  0.00000000E+00
  0.00000000E+00  0.00000000E+00  0.00000000E+00
  0.00000000E+00  0.00000000E+00  0.00000000E+00
  0.00000000E+00  0.00000000E+00  0.00000000E+00
  0.00000000E+00  0.00000000E+00  0.00000000E+00
  0.00000000E+00  0.00000000E+00  0.00000000E+00
  0.00000000E+00  0.00000000E+00  0.00000000E+00
  0.00000000E+00  0.00000000E+00  0.00000000E+00
  0.00000000E+00  0.00000000E+00  0.00000000E+00
  0.00000000E+00  0.00000000E+00  0.00000000E+00
  0.00000000E+00  0.00000000E+00  0.00000000E+00
  0.00000000E+00  0.00000000E+00  0.00000000E+00
  0.00000000E+00  0.00000000E+00  0.00000000E+00
  0.00000000E+00  0.00000000E+00  0.00000000E+00
  0.00000000E+00  0.00000000E+00  0.00000000E+00
  0.00000000E+00  0.00000000E+00  0.00000000E+00
  0.00000000E+00  0.00000000E+00  0.00000000E+00
  0.00000000E+00  0.00000000E+00  0.00000000E+00
  0.00000000E+00  0.00000000E+00  0.00000000E+00
  0.00000000E+00  0.00000000E+00  0.00000000E+00
  0.00000000E+00  0.00000000E+00  0.00000000E+00
