Ag Te O
 1.0000000000000000
    10.3012648840885692    0.0000000000000000    0.0000000000000006
    -0.0000000000000010   15.5485699999999998    0.0000000000000010
     0.0000000000000000    0.0000000000000000   30.6628962163454162
Ag Te O
32 16 1
Selective dynamics
Cartesian
 -0.0789646619514316  2.5013562814598855 17.3146582543445184   T   T   T
 -0.0000000000000004  6.6703893951380007 12.3220500792203929   F   F   F
 -0.0000000000000001  1.1038956048619994 14.5079841100818463   F   F   F
 -0.0000000000000003  4.9910381048619996 16.1549121062635699   F   F   F
  2.5753162210221423  2.7832468951380007 14.5079841100818463   F   F   F
  2.5753162210221419  6.6703893951380007 16.1549121062635699   F   F   F
  2.4851790147992672  1.3021817941394958 17.4861577631777401   T   T   T
  2.5753162210221419  4.9910381048619996 12.3220500792203929   F   F   F
 -0.0228614016368738 -0.2712833780897199 17.5510352086401156   T   T   T
  2.5863620165491668  4.0703154310488294 17.4640585936229229   T   T   T
  2.5753162210221423  0.0000000000000000 13.4150170946511196   F   F   F
 -0.0000000000000002  3.8871424999999995 13.4150170946511196   F   F   F
 -0.0400107925124764 10.0953124689224030 17.1922016793446311   T   T   T
 -0.0000000000000009 14.4446743951380014 12.3220500792203929   F   F   F
 -0.0000000000000005  8.8781806048619991 14.5079841100818463   F   F   F
 -0.0000000000000008 12.7653231048619986 16.1549121062635699   F   F   F
  2.5753162210221419 10.5575318951380002 14.5079841100818463   F   F   F
  2.5753162210221414 14.4446743951380014 16.1549121062635699   F   F   F
  2.5238151893590768  8.8876529458767699 17.9566083968267058   T   T   T
  2.5753162210221414 12.7653231048619986 12.3220500792203929   F   F   F
  0.0286511064623478  7.4062244437144011 17.8716411794769385   T   T   T
  2.5656710065868462 11.6662046750105315 17.1875018664084394   T   T   T
  2.5753162210221419  7.7742849999999999 13.4150170946511196   F   F   F
 -0.0000000000000007 11.6614274999999985 13.4150170946511196   F   F   F
  5.0664662629184827  2.4966820131809810 17.3180873167871106   T   T   T
  5.1506324420442846  6.6703893951380007 12.3220500792203929   F   F   F
  5.1506324420442846  1.1038956048619994 14.5079841100818463   F   F   F
  5.1506324420442846  4.9910381048619996 16.1549121062635699   F   F   F
  7.7259486630664274  2.7832468951380007 14.5079841100818463   F   F   F
  7.7259486630664265  6.6703893951380007 16.1549121062635699   F   F   F
  7.6479467976587134  1.2995231622234897 17.4971831563557281   T   T   T
  7.7259486630664265  4.9910381048619996 12.3220500792203929   F   F   F
  5.1444596600957491 -0.2666678119094286 17.5700277251833370   T   T   T
  7.7200867731826088  4.0737926736767527 17.4581643572435325   T   T   T
  7.7259486630664274  0.0000000000000000 13.4150170946511196   F   F   F
  5.1506324420442846  3.8871424999999995 13.4150170946511196   F   F   F
  4.8342497792364014 10.6205676778265303 18.2865092183669695   T   T   T
  5.1506324420442837 14.4446743951380014 12.3220500792203929   F   F   F
  5.1506324420442837  8.8781806048619991 14.5079841100818463   F   F   F
  5.1506324420442837 12.7653231048619986 16.1549121062635699   F   F   F
  7.7259486630664256 10.5575318951380002 14.5079841100818463   F   F   F
  7.7259486630664256 14.4446743951380014 16.1549121062635699   F   F   F
  7.8096249874088031  8.5398208384841645 18.3318568432182438   T   T   T
  7.7259486630664256 12.7653231048619986 12.3220500792203929   F   F   F
  5.1442740244710734  7.7657228919347654 17.1953710646064621   T   T   T
  7.8104627123011383 11.6165243410621866 17.0833199452552265   T   T   T
  7.7259486630664256  7.7742849999999999 13.4150170946511196   F   F   F
  5.1506324420442837 11.6614274999999985 13.4150170946511196   F   F   F
  7.0269732534055329 10.7159799290696522 18.6912425081117917   T   T   T
