Cu Ge Se O                              
   1.00000000000000     
    11.3870633164235322    0.0000000000000000    1.0799077969257329
     5.6391494895465444   11.9196569090682516    1.1133854447839220
     0.0000000000000000    0.0000000000000000   30.2876347857077874
   Cu   Ge   Se   O 
    16     8    32     1
Selective dynamics
Direct
  0.3958333333333357  0.4375000000000000  0.5416666666666643   F   F   F
  0.1809149238067320  0.3066053880632467  0.6124242963677915   T   T   T
  0.3125000000000000  0.1875000000000000  0.3750000000000000   F   F   F
  0.1041666666666643  0.0625000000000000  0.4583333333333357   F   F   F
  0.0703724369436287  0.1351907319055954  0.5905128487911924   T   T   T
  0.4583333333333357  0.3750000000000000  0.4166666666666643   F   F   F
  0.4925397156950666  0.4650245055939095  0.6054048011218498   T   T   T
  0.2009702831043754  0.1404853210667483  0.6483844401222569   T   T   T
  0.3515331517226485  0.2786179676121350  0.5575958166593082   T   T   T
  0.2003224791666653  0.0970231725000019  0.5198710083333324   F   F   F
  0.4023194500000002  0.2182213549999972  0.4390722199999999   F   F   F
  0.0572811558333299  0.4029768274999981  0.4801289916666676   F   F   F
  0.2567435816666688  0.0317786450000028  0.3942611133333358   F   F   F
  0.1169891458333367  0.3470231725000019  0.3532043416666681   F   F   F
  0.3958333333333357  0.9375000000000000  0.5416666666666643   F   F   F
  0.1824203052554410  0.7760893453647384  0.6064874461297691   T   T   T
  0.3125000000000000  0.6875000000000000  0.3750000000000000   F   F   F
  0.1041666666666643  0.5625000000000000  0.4583333333333357   F   F   F
  0.0318123745781449  0.6290065495335284  0.5815339575837442   T   T   T
  0.4583333333333357  0.8750000000000000  0.4166666666666643   F   F   F
  0.4783461878098336  0.9732822418262472  0.6066680598714385   T   T   T
  0.0821146768368237  0.6811884287040897  0.6489835182741501   T   T   T
  0.3509302897453423  0.7760327722211855  0.5576088375571615   T   T   T
  0.2003224791666653  0.5970231725000019  0.5198710083333324   F   F   F
  0.4023194500000002  0.7182213549999972  0.4390722199999999   F   F   F
  0.0572811558333299  0.9029768274999981  0.4801289916666676   F   F   F
  0.2567435816666688  0.5317786450000028  0.3942611133333358   F   F   F
  0.1169891458333367  0.8470231725000019  0.3532043416666681   F   F   F
  0.8958333333333357  0.4375000000000000  0.5416666666666643   F   F   F
  0.6758652493731034  0.2906016349364648  0.6154532332748062   T   T   T
  0.8125000000000000  0.1875000000000000  0.3750000000000000   F   F   F
  0.6041666666666643  0.0625000000000000  0.4583333333333357   F   F   F
  0.5481270949357082  0.1231681649714460  0.5847883008057408   T   T   T
  0.9583333333333357  0.3750000000000000  0.4166666666666643   F   F   F
  0.9876070288397756  0.4701404193404954  0.6062034332160238   T   T   T
  0.6540447407389749  0.1339840883292425  0.6477665574723517   T   T   T
  0.8596710188885268  0.2770796941190525  0.5689473571801500   T   T   T
  0.7003224791666653  0.0970231725000019  0.5198710083333324   F   F   F
  0.9023194500000002  0.2182213549999972  0.4390722199999999   F   F   F
  0.5572811558333299  0.4029768274999981  0.4801289916666676   F   F   F
  0.7567435816666688  0.0317786450000028  0.3942611133333358   F   F   F
  0.6169891458333367  0.3470231725000019  0.3532043416666681   F   F   F
  0.8958333333333357  0.9375000000000000  0.5416666666666643   F   F   F
  0.6649325178267205  0.7956874200408706  0.6137983330567636   T   T   T
  0.8125000000000000  0.6875000000000000  0.3750000000000000   F   F   F
  0.6041666666666643  0.5625000000000000  0.4583333333333357   F   F   F
  0.5479296265015279  0.6209841980924580  0.5856039392528274   T   T   T
  0.9583333333333357  0.8750000000000000  0.4166666666666643   F   F   F
  0.9591491308574405  0.9337813849827654  0.6142014740199002   T   T   T
  0.6318450356785590  0.6495899337389304  0.6503894590839181   T   T   T
  0.8289470472175111  0.7872009221012917  0.5586580679799908   T   T   T
  0.7003224791666653  0.5970231725000019  0.5198710083333324   F   F   F
  0.9023194500000002  0.7182213549999972  0.4390722199999999   F   F   F
  0.5572811558333370  0.9029768274999981  0.4801289916666676   F   F   F
  0.7567435816666688  0.5317786450000028  0.3942611133333358   F   F   F
  0.6169891458333367  0.8470231725000019  0.3532043416666681   F   F   F
  0.0337400006997939  0.0253244415010485  0.6247578599019050   T   T   T
 
  0.00000000E+00  0.00000000E+00  0.00000000E+00
  0.00000000E+00  0.00000000E+00  0.00000000E+00
  0.00000000E+00  0.00000000E+00  0.00000000E+00
  0.00000000E+00  0.00000000E+00  0.00000000E+00
  0.00000000E+00  0.00000000E+00  0.00000000E+00
  0.00000000E+00  0.00000000E+00  0.00000000E+00
  0.00000000E+00  0.00000000E+00  0.00000000E+00
  0.00000000E+00  0.00000000E+00  0.00000000E+00
  0.00000000E+00  0.00000000E+00  0.00000000E+00
  0.00000000E+00  0.00000000E+00  0.00000000E+00
  0.00000000E+00  0.00000000E+00  0.00000000E+00
  0.00000000E+00  0.00000000E+00  0.00000000E+00
  0.00000000E+00  0.00000000E+00  0.00000000E+00
  0.00000000E+00  0.00000000E+00  0.00000000E+00
  0.00000000E+00  0.00000000E+00  0.00000000E+00
  0.00000000E+00  0.00000000E+00  0.00000000E+00
  0.00000000E+00  0.00000000E+00  0.00000000E+00
  0.00000000E+00  0.00000000E+00  0.00000000E+00
  0.00000000E+00  0.00000000E+00  0.00000000E+00
  0.00000000E+00  0.00000000E+00  0.00000000E+00
  0.00000000E+00  0.00000000E+00  0.00000000E+00
  0.00000000E+00  0.00000000E+00  0.00000000E+00
  0.00000000E+00  0.00000000E+00  0.00000000E+00
  0.00000000E+00  0.00000000E+00  0.00000000E+00
  0.00000000E+00  0.00000000E+00  0.00000000E+00
  0.00000000E+00  0.00000000E+00  0.00000000E+00
  0.00000000E+00  0.00000000E+00  0.00000000E+00
  0.00000000E+00  0.00000000E+00  0.00000000E+00
  0.00000000E+00  0.00000000E+00  0.00000000E+00
  0.00000000E+00  0.00000000E+00  0.00000000E+00
  0.00000000E+00  0.00000000E+00  0.00000000E+00
  0.00000000E+00  0.00000000E+00  0.00000000E+00
  0.00000000E+00  0.00000000E+00  0.00000000E+00
  0.00000000E+00  0.00000000E+00  0.00000000E+00
  0.00000000E+00  0.00000000E+00  0.00000000E+00
  0.00000000E+00  0.00000000E+00  0.00000000E+00
  0.00000000E+00  0.00000000E+00  0.00000000E+00
  0.00000000E+00  0.00000000E+00  0.00000000E+00
  0.00000000E+00  0.00000000E+00  0.00000000E+00
  0.00000000E+00  0.00000000E+00  0.00000000E+00
  0.00000000E+00  0.00000000E+00  0.00000000E+00
  0.00000000E+00  0.00000000E+00  0.00000000E+00
  0.00000000E+00  0.00000000E+00  0.00000000E+00
  0.00000000E+00  0.00000000E+00  0.00000000E+00
  0.00000000E+00  0.00000000E+00  0.00000000E+00
  0.00000000E+00  0.00000000E+00  0.00000000E+00
  0.00000000E+00  0.00000000E+00  0.00000000E+00
  0.00000000E+00  0.00000000E+00  0.00000000E+00
  0.00000000E+00  0.00000000E+00  0.00000000E+00
  0.00000000E+00  0.00000000E+00  0.00000000E+00
  0.00000000E+00  0.00000000E+00  0.00000000E+00
  0.00000000E+00  0.00000000E+00  0.00000000E+00
  0.00000000E+00  0.00000000E+00  0.00000000E+00
  0.00000000E+00  0.00000000E+00  0.00000000E+00
  0.00000000E+00  0.00000000E+00  0.00000000E+00
  0.00000000E+00  0.00000000E+00  0.00000000E+00
  0.00000000E+00  0.00000000E+00  0.00000000E+00
