Cu Ge Se O
 1.0000000000000000
    11.3870633164235322    0.0000000000000000    1.0799077969257329
     5.6391494895465444   11.9196569090682516    1.1133854447839220
     0.0000000000000000    0.0000000000000000   30.2876347857077874
Cu Ge Se O
16 8 32 1
Selective dynamics
Cartesian
  6.9745071310942626  5.2148498977173601 17.3203718106344517   F   F   F
  3.7890833098623058  3.6546310321856135 19.0856248354428715   T   T   T
  4.6157978156723312  2.2349356704502972 11.9040940020766950   F   F   F
  1.5385992718907766  0.7449785568167631 14.0639095959281626   F   F   F
  1.5636961420250297  1.6114271416005383 18.1117526369730193   T   T   T
  7.3337517452740748  4.4698713409005943 13.5323251094298467   F   F   F
  8.2309236318195342  5.5429325609884987 19.3859285091633744   T   T   T
  3.0806790650114708  1.6745368278759682 20.0114748105149083   T   T   T
  5.5740986263261671  3.3210305826385134 17.5780910342333172   T   T   T
  2.8282129276513288  1.1564829284293461 16.0700172312974843   F   F   F
  5.8118198932350973  2.6011236818319836 13.9758914352178376   F   F   F
  2.9247107194078010  4.8033455261047813 15.0524984507551736   F   F   F
  3.1027599502539198  0.3787905454350738 12.2538778872969765   F   F   F
  3.2890783570026700  4.1363971556964074 11.2104321451316871   F   F   F
  9.7940818758675352 11.1746783522514868 17.8770645330264131   F   F   F
  6.4537154019011158  9.2507187275310798 19.4301539614389931   T   T   T
  7.4353725604456038  8.1947641249844239 12.4607867244686563   F   F   F
  4.3581740166640488  6.7048070113508889 14.6206023183201239   F   F   F
  3.9093114862905640  7.4975422639965235 18.3479692910538716   T   T   T
 10.1533264900473466 10.4296997954347201 14.0890178318218080   F   F   F
 10.9354423849395985 11.6011903982576730 19.9747486931015601   T   T   T
  4.7763684043602268  8.1195323605800738 20.5032773448637329   T   T   T
  8.3722302403235602  9.2500443950696436 18.1316487745542183   T   T   T
  5.6477876724246006  7.1163113829634721 16.6267099536894456   F   F   F
  8.6313946380083699  8.5609521363661099 14.5325841576097989   F   F   F
  5.7442854641810737 10.7631739806389071 15.6091911731471349   F   F   F
  5.9223346950271925  6.3386189999691993 12.8105706096889378   F   F   F
  6.1086531017759427 10.0962256102305332 11.7671248675236484   F   F   F
 12.6680387893060278  5.2148498977173601 17.8603257090973173   F   F   F
  9.3348664492952462  3.4638717856569992 19.6940465401482889   T   T   T
 10.3093294738840981  2.2349356704502972 12.4440479005395623   F   F   F
  7.2321309301025423  0.7449785568167631 14.6038634943910282   F   F   F
  6.9361216301072997  1.4681222685791315 18.4409148474261357   T   T   T
 13.0272834034858409  4.4698713409005943 14.0722790078927140   F   F   F
 13.8971358748826326  5.6039124976242025 19.9504402217301404   T   T   T
  8.2032051778776953  1.5970443641588330 20.4748008679585567   T   T   T
 11.3516221390331857  3.3026948903686839 18.4689317011320675   T   T   T
  8.5217445858630949  1.1564829284293461 16.6099711297603498   F   F   F
 11.5053515514468643  2.6011236818319836 14.5158453336807050   F   F   F
  8.6182423776195662  4.8033455261047813 15.5924523492180391   F   F   F
  8.7962916084656868  0.3787905454350738 12.7938317857598420   F   F   F
  8.9826100152144370  4.1363971556964074 11.7503860435945526   F   F   F
 15.4876135340793013 11.1746783522514868 18.4170184314892786   F   F   F
 12.0586289902038928  9.4843210537488858 20.1944723462010955   T   T   T
 13.1289042186573681  8.1947641249844239 13.0007406229315219   F   F   F
 10.0517056748758140  6.7048070113508889 15.1605562167829895   F   F   F
  9.7411320736067495  7.4019185872149809 19.0196664845840182   T   T   T
 15.8468581482591127 10.4296997954347201 14.6289717302846736   F   F   F
 16.1876247034399157 11.1303537370691590 20.6781611574356496   T   T   T
 10.8579941706980883  7.7428891417524071 21.1043367629889040   T   T   T
 13.8784161906662273  9.3831649099495635 18.6920759613837859   T   T   T
 11.3413193306363667  7.1163113829634721 17.1666638521523112   F   F   F
 14.3249262962201342  8.5609521363661099 15.0725380560726645   F   F   F
 11.4378171223928398 10.7631739806389071 16.1491450716100005   F   F   F
 11.6158663532389568  6.3386189999691993 13.3505245081518034   F   F   F
 11.8021847599877070 10.0962256102305332 12.3070787659865140   F   F   F
 11.9140711520519069  0.3018586541062578 20.0669776415236392   T   T   T
