Co Te                                   
   1.00000000000000     
    11.4398164697169697    0.0000000000000000    0.0000000000000007
    -5.7199082348584840    9.9071716774065131    0.0000000000000007
     0.0000000000000000    0.0000000000000000   33.6134573712687796
   Co   Te
    18    36
Selective dynamics
Direct
  0.0000000000000000  0.0000000000000000  0.4166666666666643   F   F   F
  0.1111111111111143  0.2222222222222214  0.3768451783333333   F   F   F
  0.2222222222222214  0.1111111111111143  0.4564881550000024   F   F   F
  0.0000000000000000  0.0000000000000000  0.5833333333333357   T   T   T
  0.1111111111111143  0.2222222222222214  0.5435118449999976   F   F   F
  0.2222222222222214  0.1111111111111143  0.6231548216666667   T   T   T
  0.0000000000000000  0.3333333333333357  0.4166666666666643   F   F   F
  0.1111111111111143  0.5555555555555571  0.3768451783333333   F   F   F
  0.2222222222222214  0.4444444444444429  0.4564881550000024   F   F   F
  0.0000000000000000  0.3333333333333357  0.5833333333333357   T   T   T
  0.1111111111111143  0.5555555555555571  0.5435118449999976   F   F   F
  0.2222222222222214  0.4444444444444429  0.6231548216666667   T   T   T
  0.0000000000000000  0.6666666666666643  0.4166666666666643   F   F   F
  0.1111111111111143  0.8888888888888857  0.3768451783333333   F   F   F
  0.2222222222222214  0.7777777777777786  0.4564881550000024   F   F   F
  0.0000000000000000  0.6666666666666643  0.5833333333333357   T   T   T
  0.1111111111111143  0.8888888888888857  0.5435118449999976   F   F   F
  0.2222222222222214  0.7777777777777786  0.6231548216666667   T   T   T
  0.3333333333333357  0.0000000000000000  0.4166666666666643   F   F   F
  0.4444444444444429  0.2222222222222214  0.3768451783333333   F   F   F
  0.5555555555555571  0.1111111111111143  0.4564881550000024   F   F   F
  0.3333333333333357  0.0000000000000000  0.5833333333333357   T   T   T
  0.4444444444444429  0.2222222222222214  0.5435118449999976   F   F   F
  0.5555555555555571  0.1111111111111143  0.6231548216666667   T   T   T
  0.3333333333333357  0.3333333333333357  0.4166666666666643   F   F   F
  0.4444444444444429  0.5555555555555571  0.3768451783333333   F   F   F
  0.5555555555555571  0.4444444444444429  0.4564881550000024   F   F   F
  0.3333333333333357  0.3333333333333357  0.5833333333333357   T   T   T
  0.4444444444444429  0.5555555555555571  0.5435118449999976   F   F   F
  0.5555555555555571  0.4444444444444429  0.6231548216666667   T   T   T
  0.3333333333333357  0.6666666666666643  0.4166666666666643   F   F   F
  0.4444444444444429  0.8888888888888857  0.3768451783333333   F   F   F
  0.5555555555555571  0.7777777777777786  0.4564881550000024   F   F   F
  0.3333333333333357  0.6666666666666643  0.5833333333333357   T   T   T
  0.4444444444444429  0.8888888888888857  0.5435118449999976   F   F   F
  0.5555555555555571  0.7777777777777786  0.6231548216666667   T   T   T
  0.6666666666666643  0.0000000000000000  0.4166666666666643   F   F   F
  0.7777777777777786  0.2222222222222214  0.3768451783333333   F   F   F
  0.8888888888888857  0.1111111111111143  0.4564881550000024   F   F   F
  0.6666666666666643  0.0000000000000000  0.5833333333333357   T   T   T
  0.7777777777777786  0.2222222222222214  0.5435118449999976   F   F   F
  0.8888888888888857  0.1111111111111143  0.6231548216666667   T   T   T
  0.6666666666666643  0.3333333333333357  0.4166666666666643   F   F   F
  0.7777777777777786  0.5555555555555571  0.3768451783333333   F   F   F
  0.8888888888888857  0.4444444444444429  0.4564881550000024   F   F   F
  0.6666666666666643  0.3333333333333357  0.5833333333333357   T   T   T
  0.7777777777777786  0.5555555555555571  0.5435118449999976   F   F   F
  0.8888888888888857  0.4444444444444429  0.6231548216666667   T   T   T
  0.6666666666666643  0.6666666666666643  0.4166666666666643   F   F   F
  0.7777777777777786  0.8888888888888857  0.3768451783333333   F   F   F
  0.8888888888888857  0.7777777777777786  0.4564881550000024   F   F   F
  0.6666666666666643  0.6666666666666643  0.5833333333333357   T   T   T
  0.7777777777777786  0.8888888888888857  0.5435118449999976   F   F   F
  0.8888888888888857  0.7777777777777786  0.6231548216666667   T   T   T
 
  0.00000000E+00  0.00000000E+00  0.00000000E+00
  0.00000000E+00  0.00000000E+00  0.00000000E+00
  0.00000000E+00  0.00000000E+00  0.00000000E+00
  0.00000000E+00  0.00000000E+00  0.00000000E+00
  0.00000000E+00  0.00000000E+00  0.00000000E+00
  0.00000000E+00  0.00000000E+00  0.00000000E+00
  0.00000000E+00  0.00000000E+00  0.00000000E+00
  0.00000000E+00  0.00000000E+00  0.00000000E+00
  0.00000000E+00  0.00000000E+00  0.00000000E+00
  0.00000000E+00  0.00000000E+00  0.00000000E+00
  0.00000000E+00  0.00000000E+00  0.00000000E+00
  0.00000000E+00  0.00000000E+00  0.00000000E+00
  0.00000000E+00  0.00000000E+00  0.00000000E+00
  0.00000000E+00  0.00000000E+00  0.00000000E+00
  0.00000000E+00  0.00000000E+00  0.00000000E+00
  0.00000000E+00  0.00000000E+00  0.00000000E+00
  0.00000000E+00  0.00000000E+00  0.00000000E+00
  0.00000000E+00  0.00000000E+00  0.00000000E+00
  0.00000000E+00  0.00000000E+00  0.00000000E+00
  0.00000000E+00  0.00000000E+00  0.00000000E+00
  0.00000000E+00  0.00000000E+00  0.00000000E+00
  0.00000000E+00  0.00000000E+00  0.00000000E+00
  0.00000000E+00  0.00000000E+00  0.00000000E+00
  0.00000000E+00  0.00000000E+00  0.00000000E+00
  0.00000000E+00  0.00000000E+00  0.00000000E+00
  0.00000000E+00  0.00000000E+00  0.00000000E+00
  0.00000000E+00  0.00000000E+00  0.00000000E+00
  0.00000000E+00  0.00000000E+00  0.00000000E+00
  0.00000000E+00  0.00000000E+00  0.00000000E+00
  0.00000000E+00  0.00000000E+00  0.00000000E+00
  0.00000000E+00  0.00000000E+00  0.00000000E+00
  0.00000000E+00  0.00000000E+00  0.00000000E+00
  0.00000000E+00  0.00000000E+00  0.00000000E+00
  0.00000000E+00  0.00000000E+00  0.00000000E+00
  0.00000000E+00  0.00000000E+00  0.00000000E+00
  0.00000000E+00  0.00000000E+00  0.00000000E+00
  0.00000000E+00  0.00000000E+00  0.00000000E+00
  0.00000000E+00  0.00000000E+00  0.00000000E+00
  0.00000000E+00  0.00000000E+00  0.00000000E+00
  0.00000000E+00  0.00000000E+00  0.00000000E+00
  0.00000000E+00  0.00000000E+00  0.00000000E+00
  0.00000000E+00  0.00000000E+00  0.00000000E+00
  0.00000000E+00  0.00000000E+00  0.00000000E+00
  0.00000000E+00  0.00000000E+00  0.00000000E+00
  0.00000000E+00  0.00000000E+00  0.00000000E+00
  0.00000000E+00  0.00000000E+00  0.00000000E+00
  0.00000000E+00  0.00000000E+00  0.00000000E+00
  0.00000000E+00  0.00000000E+00  0.00000000E+00
  0.00000000E+00  0.00000000E+00  0.00000000E+00
  0.00000000E+00  0.00000000E+00  0.00000000E+00
  0.00000000E+00  0.00000000E+00  0.00000000E+00
  0.00000000E+00  0.00000000E+00  0.00000000E+00
  0.00000000E+00  0.00000000E+00  0.00000000E+00
  0.00000000E+00  0.00000000E+00  0.00000000E+00
