Co Te
 1.0000000000000000
    11.4398164697169697    0.0000000000000000    0.0000000000000007
    -5.7199082348584840    9.9071716774065131    0.0000000000000007
     0.0000000000000000    0.0000000000000000   33.6134573712687796
Co Te
18 36
Selective dynamics
Cartesian
  0.0000000000000000  0.0000000000000000 14.0056072380286594   F   F   F
  0.0000000000000007  2.2015937060903359 12.6670693374756826   F   F   F
  1.9066360782861618  1.1007968530451677 15.3441451385816361   F   F   F
  0.0000000000000000  0.0000000000000000 19.6078501332401238   T   T   T
  0.0000000000000007  2.2015937060903359 18.2693122326871453   F   F   F
  1.9066360782861618  1.1007968530451677 20.9463880337930988   T   T   T
 -1.9066360782861613  3.3023905591355041 14.0056072380286594   F   F   F
 -1.9066360782861607  5.5039842652258404 12.6670693374756826   F   F   F
  0.0000000000000004  4.4031874121806718 15.3441451385816361   F   F   F
 -1.9066360782861613  3.3023905591355041 19.6078501332401238   T   T   T
 -1.9066360782861607  5.5039842652258404 18.2693122326871453   F   F   F
  0.0000000000000004  4.4031874121806718 20.9463880337930988   T   T   T
 -3.8132721565723227  6.6047811182710081 14.0056072380286594   F   F   F
 -3.8132721565723218  8.8063748243613436 12.6670693374756826   F   F   F
 -1.9066360782861609  7.7055779713161758 15.3441451385816361   F   F   F
 -3.8132721565723227  6.6047811182710081 19.6078501332401238   T   T   T
 -3.8132721565723218  8.8063748243613436 18.2693122326871453   F   F   F
 -1.9066360782861609  7.7055779713161758 20.9463880337930988   T   T   T
  3.8132721565723235  0.0000000000000000 14.0056072380286594   F   F   F
  3.8132721565723244  2.2015937060903359 12.6670693374756826   F   F   F
  5.7199082348584849  1.1007968530451677 15.3441451385816361   F   F   F
  3.8132721565723235  0.0000000000000000 19.6078501332401238   T   T   T
  3.8132721565723244  2.2015937060903359 18.2693122326871453   F   F   F
  5.7199082348584849  1.1007968530451677 20.9463880337930988   T   T   T
  1.9066360782861622  3.3023905591355041 14.0056072380286594   F   F   F
  1.9066360782861629  5.5039842652258404 12.6670693374756826   F   F   F
  3.8132721565723240  4.4031874121806718 15.3441451385816361   F   F   F
  1.9066360782861622  3.3023905591355041 19.6078501332401238   T   T   T
  1.9066360782861629  5.5039842652258404 18.2693122326871453   F   F   F
  3.8132721565723240  4.4031874121806718 20.9463880337930988   T   T   T
  0.0000000000000009  6.6047811182710081 14.0056072380286594   F   F   F
  0.0000000000000016  8.8063748243613436 12.6670693374756826   F   F   F
  1.9066360782861627  7.7055779713161758 15.3441451385816361   F   F   F
  0.0000000000000009  6.6047811182710081 19.6078501332401238   T   T   T
  0.0000000000000016  8.8063748243613436 18.2693122326871453   F   F   F
  1.9066360782861627  7.7055779713161758 20.9463880337930988   T   T   T
  7.6265443131446471  0.0000000000000000 14.0056072380286594   F   F   F
  7.6265443131446480  2.2015937060903359 12.6670693374756826   F   F   F
  9.5331803914308093  1.1007968530451677 15.3441451385816361   F   F   F
  7.6265443131446471  0.0000000000000000 19.6078501332401238   T   T   T
  7.6265443131446480  2.2015937060903359 18.2693122326871453   F   F   F
  9.5331803914308093  1.1007968530451677 20.9463880337930988   T   T   T
  5.7199082348584858  3.3023905591355041 14.0056072380286594   F   F   F
  5.7199082348584867  5.5039842652258404 12.6670693374756826   F   F   F
  7.6265443131446471  4.4031874121806718 15.3441451385816361   F   F   F
  5.7199082348584858  3.3023905591355041 19.6078501332401238   T   T   T
  5.7199082348584867  5.5039842652258404 18.2693122326871453   F   F   F
  7.6265443131446471  4.4031874121806718 20.9463880337930988   T   T   T
  3.8132721565723244  6.6047811182710081 14.0056072380286611   F   F   F
  3.8132721565723253  8.8063748243613436 12.6670693374756844   F   F   F
  5.7199082348584867  7.7055779713161758 15.3441451385816379   F   F   F
  3.8132721565723244  6.6047811182710081 19.6078501332401238   T   T   T
  3.8132721565723253  8.8063748243613436 18.2693122326871453   F   F   F
  5.7199082348584867  7.7055779713161758 20.9463880337930988   T   T   T
