Cu Te H O                               
   1.00000000000000     
     8.1482185559654816    0.0000000000000000    0.0000000000000005
    -4.0741092779827399    7.0565642650538623    0.0000000000000005
     0.0000000000000000    0.0000000000000000   30.9732619199999988
   Cu   Te   H    O 
     8    16     1     1
Selective dynamics
Direct
  0.0000000000000000  0.0000000000000000  0.4166666666666643   F   F   F
  0.3333333333333357  0.1666666666666643  0.4620647533333369   F   F   F
  0.1666666666666643  0.3333333333333357  0.3712685799999988   F   F   F
  0.9981157802800524  0.0018347738677704  0.5859545603209639   T   T   T
  0.3393086742834726  0.1754219320286694  0.6249533840554733   T   T   T
  0.1666666666666643  0.3333333333333357  0.5379352466666631   F   F   F
  0.0000000000000000  0.5000000000000000  0.4166666666666643   F   F   F
  0.3333333333333357  0.6666666666666643  0.4620647533333369   F   F   F
  0.1666666666666643  0.8333333333333357  0.3712685799999988   F   F   F
  0.0054589163224463  0.5064032948190516  0.5864824123498309   T   T   T
  0.3393085400916362  0.6778935737107332  0.6284416574395379   T   T   T
  0.1666666666666643  0.8333333333333357  0.5379352466666631   F   F   F
  0.5000000000000000  0.0000000000000000  0.4166666666666643   F   F   F
  0.8333333333333357  0.1666666666666643  0.4620647533333369   F   F   F
  0.6666666666666643  0.3333333333333357  0.3712685799999988   F   F   F
  0.5104388072382164  0.0053884612527497  0.5873771140976487   T   T   T
  0.8440277827503877  0.1764874461912385  0.6280045799982403   T   T   T
  0.6666666666666643  0.3333333333333357  0.5379352466666631   F   F   F
  0.5000000000000000  0.5000000000000000  0.4166666666666643   F   F   F
  0.8333333333333357  0.6666666666666643  0.4620647533333369   F   F   F
  0.6666666666666643  0.8333333333333357  0.3712685799999988   F   F   F
  0.5114713050833330  0.5163440108871598  0.5890105062437385   T   T   T
  0.8459562806028558  0.6774095764131474  0.6286866520021803   T   T   T
  0.6666666666666643  0.8333333333333357  0.5379352466666631   F   F   F
  0.3350501984952814  0.0737002263338056  0.7018326085926958   T   T   T
  0.3436613966714930  0.1899390618131562  0.6905030725686174   T   T   T
 
  0.00000000E+00  0.00000000E+00  0.00000000E+00
  0.00000000E+00  0.00000000E+00  0.00000000E+00
  0.00000000E+00  0.00000000E+00  0.00000000E+00
  0.00000000E+00  0.00000000E+00  0.00000000E+00
  0.00000000E+00  0.00000000E+00  0.00000000E+00
  0.00000000E+00  0.00000000E+00  0.00000000E+00
  0.00000000E+00  0.00000000E+00  0.00000000E+00
  0.00000000E+00  0.00000000E+00  0.00000000E+00
  0.00000000E+00  0.00000000E+00  0.00000000E+00
  0.00000000E+00  0.00000000E+00  0.00000000E+00
  0.00000000E+00  0.00000000E+00  0.00000000E+00
  0.00000000E+00  0.00000000E+00  0.00000000E+00
  0.00000000E+00  0.00000000E+00  0.00000000E+00
  0.00000000E+00  0.00000000E+00  0.00000000E+00
  0.00000000E+00  0.00000000E+00  0.00000000E+00
  0.00000000E+00  0.00000000E+00  0.00000000E+00
  0.00000000E+00  0.00000000E+00  0.00000000E+00
  0.00000000E+00  0.00000000E+00  0.00000000E+00
  0.00000000E+00  0.00000000E+00  0.00000000E+00
  0.00000000E+00  0.00000000E+00  0.00000000E+00
  0.00000000E+00  0.00000000E+00  0.00000000E+00
  0.00000000E+00  0.00000000E+00  0.00000000E+00
  0.00000000E+00  0.00000000E+00  0.00000000E+00
  0.00000000E+00  0.00000000E+00  0.00000000E+00
  0.00000000E+00  0.00000000E+00  0.00000000E+00
  0.00000000E+00  0.00000000E+00  0.00000000E+00
