Cu Te H O
 1.0000000000000000
     8.1482185559654816    0.0000000000000000    0.0000000000000005
    -4.0741092779827399    7.0565642650538623    0.0000000000000005
     0.0000000000000000    0.0000000000000000   30.9732619199999988
Cu Te H O
8 16 1 1
Selective dynamics
Cartesian
  0.0000000000000000  0.0000000000000000 12.9055257999999977   F   F   F
  2.0370546389913704  1.1760940441756438 14.3116526289935244   F   F   F
 -0.0000000000000002  2.3521880883512876 11.4993989710064728   F   F   F
 -0.0228281033232633  0.0129471997097426 18.1489240700397438   T   T   T
  2.0500731151569687  1.2378761368601963 19.3568448521406111   T   T   T
 -0.0000000000000002  2.3521880883512876 16.6616092910064744   F   F   F
 -2.0370546389913700  3.5282821325269311 12.9055257999999977   F   F   F
  0.0000000000000004  4.7043761767025751 14.3116526289935244   F   F   F
 -2.0370546389913704  5.8804702208782187 11.4993989710064728   F   F   F
 -2.0186619185492902  3.5734673939256596 18.1652733691848205   T   T   T
  0.0029476444324250  4.7835995677568315 19.4648880573137006   T   T   T
 -2.0370546389913704  5.8804702208782187 16.6616092910064744   F   F   F
  4.0741092779827408  0.0000000000000000 12.9055257999999977   F   F   F
  6.1111639169741112  1.1760940441756438 14.3116526289935244   F   F   F
  4.0741092779827408  2.3521880883512876 11.4993989710064728   F   F   F
  4.1372137808394722  0.0380240231197604 18.1929852007601092   T   T   T
  6.1582936991818871  1.2453950060237011 19.4513503432450392   T   T   T
  4.0741092779827408  2.3521880883512876 16.6616092910064744   F   F   F
  2.0370546389913708  3.5282821325269311 12.9055257999999977   F   F   F
  4.0741092779827408  4.7043761767025751 14.3116526289935244   F   F   F
  2.0370546389913704  5.8804702208782187 11.4993989710064728   F   F   F
  2.0639380535376897  3.6436146957009101 18.2435766835191551   T   T   T
  4.1331960228845741  4.7801842097222869 19.4724763380714734   T   T   T
  2.0370546389913704  5.8804702208782187 16.6616092910064744   F   F   F
  2.4297994686631581  0.5200703834735165 21.7380452099384769   T   T   T
  2.0263956753433305  1.3403171961285909 21.3871325232325056   T   T   T
