Cd Ge Se O                              
   1.00000000000000     
    15.4276159042126828    0.0000000000000000    0.0000000000000009
    -0.0000000000000008   12.5648332814656172    4.5455312936084002
     0.0000000000000000    0.0000000000000000   40.0179154950146199
   Cd   Ge   Se   O 
    32     8    48     1
Selective dynamics
Direct
  0.1967537625000020  0.5060743800000012  0.5276585322828780   F   F   F
  0.3032462374999980  0.0060743800000012  0.5276585322828780   F   F   F
  0.4471672625000025  0.6940883999999983  0.5354901389495410   F   F   F
  0.3028327374999975  0.1940883999999983  0.3688234722828767   F   F   F
  0.4633054500000000  0.6993249000000006  0.4211424772828778   F   F   F
  0.2911741382641608  0.2064205052082997  0.5915791633720886   T   T   T
  0.1474850900000035  0.8562214800000021  0.4661341472828795   F   F   F
  0.3525149099999965  0.3562214800000021  0.4661341472828795   F   F   F
  0.4467537625000020  0.5060743800000012  0.3609918656162137   F   F   F
  0.0532462374999980  0.0060743800000012  0.3609918656162137   F   F   F
  0.1971672625000025  0.6940883999999983  0.3688234722828767   F   F   F
  0.0528327374999975  0.1940883999999983  0.5354901389495410   F   F   F
  0.2037755557359233  0.7050409692663635  0.5918467730865800   T   T   T
  0.0366945500000000  0.1993249000000006  0.4211424772828778   F   F   F
  0.4121932334672778  0.9133593984508082  0.6146898286194045   T   T   T
  0.0949843515242108  0.4115148307325711  0.6162031813133879   T   T   T
  0.3652610420974085  0.4444377345126966  0.6121242154846556   T   T   T
  0.3853868225000028  0.9429900599999996  0.4442190256162135   F   F   F
  0.1146131774999972  0.4429900599999996  0.4442190256162135   F   F   F
  0.1356012906600697  0.9590243176190327  0.6114468105446846   T   T   T
  0.3765175974999977  0.1916705499999978  0.5290536289495478   F   F   F
  0.1234824025000023  0.6916705499999978  0.5290536289495478   F   F   F
  0.3709391699999998  0.4972009000000028  0.5473450139495455   F   F   F
  0.1290608300000002  0.9972009000000028  0.5473450139495455   F   F   F
  0.3636904724999965  0.8133133999999984  0.5709544156162139   F   F   F
  0.1363095275000035  0.3133133999999984  0.5709544156162139   F   F   F
  0.3634858074999983  0.7540413299999997  0.4692048756162137   F   F   F
  0.3849996687104706  0.2598179327245731  0.6381508700492020   T   T   T
  0.0106308399999975  0.9961775399999979  0.4691590372828784   F   F   F
  0.4893691600000025  0.4961775399999979  0.4691590372828784   F   F   F
  0.2581896224999980  0.0238970600000030  0.4595127489495425   F   F   F
  0.4795351109873849  0.5364373708696846  0.6287230769016716   T   T   T
  0.1265175974999977  0.1916705499999978  0.3623869622828764   F   F   F
  0.3734824025000023  0.6916705499999978  0.3623869622828764   F   F   F
  0.1209391699999998  0.4972009000000028  0.3806783472828812   F   F   F
  0.3790608300000002  0.9972009000000028  0.3806783472828812   F   F   F
  0.1136904724999965  0.8133133999999984  0.4042877489495424   F   F   F
  0.3863095275000035  0.3133133999999984  0.4042877489495424   F   F   F
  0.1166177772635208  0.7662646712189982  0.6453283441924071   T   T   T
  0.1365141925000017  0.2540413299999997  0.4692048756162137   F   F   F
  0.2675427413404705  0.9975182193592076  0.6358278486160813   T   T   T
  0.2359219994788759  0.5008860651188556  0.6352217766741646   T   T   T
  0.0170211867148424  0.0523689899585094  0.6226816467217660   T   T   T
  0.2418103775000020  0.5238970600000030  0.4595127489495425   F   F   F
  0.6967537625000020  0.5060743800000012  0.5276585322828780   F   F   F
  0.8032462374999980  0.0060743800000012  0.5276585322828780   F   F   F
  0.9471672625000025  0.6940883999999983  0.5354901389495410   F   F   F
  0.8028327374999975  0.1940883999999983  0.3688234722828767   F   F   F
  0.9633054500000000  0.6993249000000006  0.4211424772828778   F   F   F
  0.7901422887166518  0.1998468009866343  0.5925618489348921   T   T   T
  0.6474850899999964  0.8562214800000021  0.4661341472828795   F   F   F
  0.8525149099999965  0.3562214800000021  0.4661341472828795   F   F   F
  0.9467537625000020  0.5060743800000012  0.3609918656162137   F   F   F
  0.5532462374999980  0.0060743800000012  0.3609918656162137   F   F   F
  0.6971672625000025  0.6940883999999983  0.3688234722828767   F   F   F
  0.5528327374999975  0.1940883999999983  0.5354901389495410   F   F   F
  0.7133583927136726  0.7030093375005322  0.5924285904599174   T   T   T
  0.5366945500000000  0.1993249000000006  0.4211424772828778   F   F   F
  0.9118206259941175  0.8933169990221543  0.6227458237965777   T   T   T
  0.5969629591985566  0.4162719137928903  0.6154609676794536   T   T   T
  0.8669377329033807  0.4417344729289070  0.6120595474859911   T   T   T
  0.8853868225000028  0.9429900599999996  0.4442190256162135   F   F   F
  0.6146131774999972  0.4429900599999996  0.4442190256162135   F   F   F
  0.6361402471719799  0.9413795754322649  0.6124069511240293   T   T   T
  0.8765175974999977  0.1916705499999978  0.5290536289495478   F   F   F
  0.6234824025000023  0.6916705499999978  0.5290536289495478   F   F   F
  0.8709391699999998  0.4972009000000028  0.5473450139495455   F   F   F
  0.6290608300000002  0.9972009000000028  0.5473450139495455   F   F   F
  0.8636904724999965  0.8133133999999984  0.5709544156162139   F   F   F
  0.6363095274999964  0.3133133999999984  0.5709544156162139   F   F   F
  0.8634858074999983  0.7540413299999997  0.4692048756162137   F   F   F
  0.8866698745356274  0.2565930680471098  0.6377609464579450   T   T   T
  0.5106308399999975  0.9961775399999979  0.4691590372828784   F   F   F
  0.9893691600000025  0.4961775399999979  0.4691590372828784   F   F   F
  0.7581896224999980  0.0238970600000030  0.4595127489495425   F   F   F
  0.9803076777766648  0.5345484825074180  0.6288396169266051   T   T   T
  0.6265175974999977  0.1916705499999978  0.3623869622828764   F   F   F
  0.8734824025000023  0.6916705499999978  0.3623869622828764   F   F   F
  0.6209391699999998  0.4972009000000028  0.3806783472828741   F   F   F
  0.8790608300000002  0.9972009000000028  0.3806783472828812   F   F   F
  0.6136904724999965  0.8133133999999984  0.4042877489495424   F   F   F
  0.8863095275000035  0.3133133999999984  0.4042877489495424   F   F   F
  0.6074397854128293  0.7570268598001277  0.6360500922169479   T   T   T
  0.6365141925000017  0.2540413299999997  0.4692048756162137   F   F   F
  0.7670198439365095  0.9914228167327011  0.6358083883605730   T   T   T
  0.7387002584498603  0.4960846916754278  0.6361216434321335   T   T   T
  0.5236208451179465  0.0364705270366130  0.6293193652043740   T   T   T
  0.7418103775000020  0.5238970600000030  0.4595127489495425   F   F   F
  0.0037551652151251  0.7526499650368237  0.6462756272587882   T   T   T
 
  0.00000000E+00  0.00000000E+00  0.00000000E+00
  0.00000000E+00  0.00000000E+00  0.00000000E+00
  0.00000000E+00  0.00000000E+00  0.00000000E+00
  0.00000000E+00  0.00000000E+00  0.00000000E+00
  0.00000000E+00  0.00000000E+00  0.00000000E+00
  0.00000000E+00  0.00000000E+00  0.00000000E+00
  0.00000000E+00  0.00000000E+00  0.00000000E+00
  0.00000000E+00  0.00000000E+00  0.00000000E+00
  0.00000000E+00  0.00000000E+00  0.00000000E+00
  0.00000000E+00  0.00000000E+00  0.00000000E+00
  0.00000000E+00  0.00000000E+00  0.00000000E+00
  0.00000000E+00  0.00000000E+00  0.00000000E+00
  0.00000000E+00  0.00000000E+00  0.00000000E+00
  0.00000000E+00  0.00000000E+00  0.00000000E+00
  0.00000000E+00  0.00000000E+00  0.00000000E+00
  0.00000000E+00  0.00000000E+00  0.00000000E+00
  0.00000000E+00  0.00000000E+00  0.00000000E+00
  0.00000000E+00  0.00000000E+00  0.00000000E+00
  0.00000000E+00  0.00000000E+00  0.00000000E+00
  0.00000000E+00  0.00000000E+00  0.00000000E+00
  0.00000000E+00  0.00000000E+00  0.00000000E+00
  0.00000000E+00  0.00000000E+00  0.00000000E+00
  0.00000000E+00  0.00000000E+00  0.00000000E+00
  0.00000000E+00  0.00000000E+00  0.00000000E+00
  0.00000000E+00  0.00000000E+00  0.00000000E+00
  0.00000000E+00  0.00000000E+00  0.00000000E+00
  0.00000000E+00  0.00000000E+00  0.00000000E+00
  0.00000000E+00  0.00000000E+00  0.00000000E+00
  0.00000000E+00  0.00000000E+00  0.00000000E+00
  0.00000000E+00  0.00000000E+00  0.00000000E+00
  0.00000000E+00  0.00000000E+00  0.00000000E+00
  0.00000000E+00  0.00000000E+00  0.00000000E+00
  0.00000000E+00  0.00000000E+00  0.00000000E+00
  0.00000000E+00  0.00000000E+00  0.00000000E+00
  0.00000000E+00  0.00000000E+00  0.00000000E+00
  0.00000000E+00  0.00000000E+00  0.00000000E+00
  0.00000000E+00  0.00000000E+00  0.00000000E+00
  0.00000000E+00  0.00000000E+00  0.00000000E+00
  0.00000000E+00  0.00000000E+00  0.00000000E+00
  0.00000000E+00  0.00000000E+00  0.00000000E+00
  0.00000000E+00  0.00000000E+00  0.00000000E+00
  0.00000000E+00  0.00000000E+00  0.00000000E+00
  0.00000000E+00  0.00000000E+00  0.00000000E+00
  0.00000000E+00  0.00000000E+00  0.00000000E+00
  0.00000000E+00  0.00000000E+00  0.00000000E+00
  0.00000000E+00  0.00000000E+00  0.00000000E+00
  0.00000000E+00  0.00000000E+00  0.00000000E+00
  0.00000000E+00  0.00000000E+00  0.00000000E+00
  0.00000000E+00  0.00000000E+00  0.00000000E+00
  0.00000000E+00  0.00000000E+00  0.00000000E+00
  0.00000000E+00  0.00000000E+00  0.00000000E+00
  0.00000000E+00  0.00000000E+00  0.00000000E+00
  0.00000000E+00  0.00000000E+00  0.00000000E+00
  0.00000000E+00  0.00000000E+00  0.00000000E+00
  0.00000000E+00  0.00000000E+00  0.00000000E+00
  0.00000000E+00  0.00000000E+00  0.00000000E+00
  0.00000000E+00  0.00000000E+00  0.00000000E+00
  0.00000000E+00  0.00000000E+00  0.00000000E+00
  0.00000000E+00  0.00000000E+00  0.00000000E+00
  0.00000000E+00  0.00000000E+00  0.00000000E+00
  0.00000000E+00  0.00000000E+00  0.00000000E+00
  0.00000000E+00  0.00000000E+00  0.00000000E+00
  0.00000000E+00  0.00000000E+00  0.00000000E+00
  0.00000000E+00  0.00000000E+00  0.00000000E+00
  0.00000000E+00  0.00000000E+00  0.00000000E+00
  0.00000000E+00  0.00000000E+00  0.00000000E+00
  0.00000000E+00  0.00000000E+00  0.00000000E+00
  0.00000000E+00  0.00000000E+00  0.00000000E+00
  0.00000000E+00  0.00000000E+00  0.00000000E+00
  0.00000000E+00  0.00000000E+00  0.00000000E+00
  0.00000000E+00  0.00000000E+00  0.00000000E+00
  0.00000000E+00  0.00000000E+00  0.00000000E+00
  0.00000000E+00  0.00000000E+00  0.00000000E+00
  0.00000000E+00  0.00000000E+00  0.00000000E+00
  0.00000000E+00  0.00000000E+00  0.00000000E+00
  0.00000000E+00  0.00000000E+00  0.00000000E+00
  0.00000000E+00  0.00000000E+00  0.00000000E+00
  0.00000000E+00  0.00000000E+00  0.00000000E+00
  0.00000000E+00  0.00000000E+00  0.00000000E+00
  0.00000000E+00  0.00000000E+00  0.00000000E+00
  0.00000000E+00  0.00000000E+00  0.00000000E+00
  0.00000000E+00  0.00000000E+00  0.00000000E+00
  0.00000000E+00  0.00000000E+00  0.00000000E+00
  0.00000000E+00  0.00000000E+00  0.00000000E+00
  0.00000000E+00  0.00000000E+00  0.00000000E+00
  0.00000000E+00  0.00000000E+00  0.00000000E+00
  0.00000000E+00  0.00000000E+00  0.00000000E+00
  0.00000000E+00  0.00000000E+00  0.00000000E+00
  0.00000000E+00  0.00000000E+00  0.00000000E+00
