Cd Ge Se O
 1.0000000000000000
    15.4276159042126828    0.0000000000000000    0.0000000000000009
    -0.0000000000000008   12.5648332814656172    4.5455312936084002
     0.0000000000000000    0.0000000000000000   40.0179154950146199
Cd Ge Se O
32 8 48 1
Selective dynamics
Cartesian
  3.0354414755586849  6.3587402127210728 23.4161714863031136   F   F   F
  4.6783664765476551  0.0763235719882669 21.1434058394989144   F   F   F
  6.8987247707882462  8.7211050285992169 24.5841996716270899   F   F   F
  4.6719871573712650  2.4386883878664078 15.6417814423204540   F   F   F
  7.1476985289284123  8.7869007780776140 20.0320472846168798   F   F   F
  4.4921227663795831  2.5936392338182102 24.6120558345023710   T   T   T
  2.2753433201182380 10.7582801482097441 22.5456984469065951   F   F   F
  5.4384646319881025  4.4758635074769373 20.2729328001023994   F   F   F
  6.8923454516118570  6.3587402127210728 16.7465189038006734   F   F   F
  0.8214625004944834  0.0763235719882669 14.4737532569964760   F   F   F
  3.0418207947350755  8.7211050285992169 17.9145470891246532   F   F   F
  0.8150831813180938  2.4386883878664078 22.3114340248228906   F   F   F
  3.1437710045613607  8.8587222354347599 26.8892599404521739   T   T   T
  0.5661094231779265  2.5044841373448050 17.7592816378126805   F   F   F
  6.3591588842486093 11.4762085675941510 28.7503093453058369   T   T   T
  1.4653820922262586  5.1706152410053292 26.5297203784372932   T   T   T
  5.6351070622512403  5.5842860381443229 26.5161407580048980   T   T   T
  5.9455998720749896 11.8485128899792596 22.0631102556789287   F   F   F
  1.7682080800313498  5.5660962492464519 19.7903446088747295   F   F   F
  2.0920046284190907 12.0499806637544804 28.8281018411421925   T   T   T
  5.8087688754069484  2.4083085057168194 22.0428678987218234   F   F   F
  1.9050390766993921  8.6907251464496280 24.3156335455260226   F   F   F
  5.7227070385874521  6.2472464158946606 24.1636487650107270   F   F   F
  1.9911009135188880 12.5296630566274683 26.4364144118149227   F   F   F
  5.6108769177516242 10.2191472765819551 26.5453470668460341   F   F   F
  2.1029310343547150  3.9367306358491461 24.2725814200418348   F   F   F
  5.6077194247425890  9.4744035987845958 22.2041195244474814   F   F   F
  5.9396270121142383  3.2645690082192980 26.7184781345392466   T   T   T
  0.1640085162591383 12.5168047088405459 23.3029228897684462   F   F   F
  7.5497994358472020  6.2343880681077390 21.0301572429642469   F   F   F
  3.9832503263836685  0.3002625748171797 18.4973671903999701   F   F   F
  7.3980835048973441  6.7402461309253452 27.5985798175659198   T   T   T
  1.9518648993537773  2.4083085057168194 15.3732153162193832   F   F   F
  5.7619430527525628  8.6907251464496280 17.6459809630235824   F   F   F
  1.8658030625342807  6.2472464158946606 17.4939961825082868   F   F   F
  5.8480048895720591 12.5296630566274683 19.7667618293124860   F   F   F
  1.7539729416984535 10.2191472765819551 19.8756944843435974   F   F   F
  5.9598350104078870  3.9367306358491461 17.6029288375393982   F   F   F
  1.7991342752246691  9.6279878433437656 29.3077751866419653   T   T   T
  2.1060885273637511  3.1919869580517863 19.9313538776432821   F   F   F
  4.1275466513608627 12.5336501214729381 29.9787553973370180   T   T   T
  3.6397139913139966  6.2935499012277543 27.6970446630698568   T   T   T
  0.2625963308705118  0.6580076279473817 25.1564664014792534   T   T   T
  3.7305576257226725  6.5826792155499900 20.7701328372041694   F   F   F
 10.7492494276650259  6.3587402127210728 23.4161714863031136   F   F   F
 12.3921744286539965  0.0763235719882669 21.1434058394989144   F   F   F
 14.6125327228945885  8.7211050285992169 24.5841996716270899   F   F   F
 12.3857951094776055  2.4386883878664078 15.6417814423204540   F   F   F
 14.8615064810347537  8.7869007780776140 20.0320472846168798   F   F   F
 12.1900117399959882  2.5110417362313071 24.6214998840582666   T   T   T
  9.9891512722245785 10.7582801482097441 22.5456984469065951   F   F   F
 13.1522725840944439  4.4758635074769373 20.2729328001023994   F   F   F
 14.6061534037181993  6.3587402127210728 16.7465189038006734   F   F   F
  8.5352704526008250  0.0763235719882669 14.4737532569964760   F   F   F
 10.7556287468414169  8.7211050285992169 17.9145470891246532   F   F   F
  8.5288911334244357  2.4386883878664078 22.3114340248228906   F   F   F
 11.0054192848330317  8.8331951210078099 26.9033082131632533   T   T   T
  8.2799173752842670  2.5044841373448050 17.7592816378126805   F   F   F
 14.0672183913759881 11.2243791602125587 28.9815901257322963   T   T   T
  9.2097152435575396  5.2303871965643012 26.5216420058720423   T   T   T
 13.3747823561023242  5.5503200070278167 26.5012651193751516   T   T   T
 13.6594078241813310 11.8485128899792596 22.0631102556789287   F   F   F
  9.4820160321376914  5.5660962492464519 19.7903446088747295   F   F   F
  9.8141273945801881 11.8282774198833192 28.7863199379321983   T   T   T
 13.5225768275132907  2.4083085057168194 22.0428678987218234   F   F   F
  9.6188470288057335  8.6907251464496280 24.3156335455260226   F   F   F
 13.4365149906937944  6.2472464158946606 24.1636487650107270   F   F   F
  9.7049088656252298 12.5296630566274683 26.4364144118149227   F   F   F
 13.3246848698579647 10.2191472765819551 26.5453470668460341   F   F   F
  9.8167389864610559  3.9367306358491461 24.2725814200418348   F   F   F
 13.3215273768489304  9.4744035987845958 22.2041195244474814   F   F   F
 13.6792022581720829  3.2240491211917126 26.6882154819056368   T   T   T
  7.8778164683654799 12.5168047088405459 23.3029228897684462   F   F   F
 15.2636073879535434  6.2343880681077390 21.0301572429642469   F   F   F
 11.6970582784900099  0.3002625748171797 18.4973671903999701   F   F   F
 15.1238103206891097  6.7165125635661864 27.5946575052746681   T   T   T
  9.6656728514601191  2.4083085057168194 15.3732153162193832   F   F   F
 13.4757510048589033  8.6907251464496280 17.6459809630235824   F   F   F
  9.5796110146406228  6.2472464158946606 17.4939961825082868   F   F   F
 13.5618128416783996 12.5296630566274683 19.7667618293124860   F   F   F
  9.4677808938047949 10.2191472765819551 19.8756944843435974   F   F   F
 13.6736429625142293  3.9367306358491461 17.6029288375393982   F   F   F
  9.3713476942864560  9.5119162829800583 28.8944881222576164   T   T   T
  9.8198964794700920  3.1919869580517863 19.9313538776432821   F   F   F
 11.8332875431615836 12.4570624036874236 29.9502697950907262   T   T   T
 11.3963838557070911  6.2332214443889935 27.7112306617077699   T   T   T
  8.0782212779189084  0.4582460919022653 25.3498270980641855   T   T   T
 11.4443655778290143  6.5826792155499900 20.7701328372041694   F   F   F
  0.0579332465957842  9.4569213299886457 29.2837974073378895   T   T   T
