Te H O
 1.0000000000000000
     9.5692778400372518    0.0000000000000000    0.0000000000000006
    -0.0000000000000006    9.0646730800000004    0.0000000000000006
     0.0000000000000000    0.0000000000000000   31.5831563680198002
Te H O
24 1 1
Selective dynamics
Cartesian
  2.1757121576055813  2.1681457053615349 12.6332625472079183   F   F   F
  2.6089267624130441  6.7004822453615356 12.6332625472079183   F   F   F
  0.0599597552467743  8.9814021830384654 12.6332625472079183   F   F   F
  4.7246791647718513  4.4490656430384652 12.6332625472079183   F   F   F
  2.1757121576055813  2.1681457053615349 15.7915781840099001   F   F   F
  2.6089267624130441  6.7004822453615356 15.7915781840099001   F   F   F
  0.0599597552467743  8.9814021830384654 15.7915781840099001   F   F   F
  4.7246791647718513  4.4490656430384652 15.7915781840099001   F   F   F
  2.1085324730783630  2.1173422304833411 18.7767957915559549   T   T   T
  2.6129540235025486  6.6321547812182411 18.7843719680815724   T   T   T
 -0.0987590535401692  8.9653960429286990 18.9484439363143196   T   T   T
  4.7152365173330058  4.4641322344500614 18.7808087009318427   T   T   T
  6.9603510776242068  2.1681457053615349 12.6332625472079183   F   F   F
  7.3935656824316700  6.7004822453615356 12.6332625472079183   F   F   F
  4.8445986752654004  8.9814021830384654 12.6332625472079183   F   F   F
  9.5093180847904772  4.4490656430384652 12.6332625472079183   F   F   F
  6.9603510776242068  2.1681457053615349 15.7915781840099001   F   F   F
  7.3935656824316700  6.7004822453615356 15.7915781840099001   F   F   F
  4.8445986752654004  8.9814021830384654 15.7915781840099001   F   F   F
  9.5093180847904772  4.4490656430384652 15.7915781840099001   F   F   F
  6.9685550904696605  2.1733716416525612 18.7909375206938734   T   T   T
  7.3438358482082711  6.7374687593052380 18.8044812943057735   T   T   T
  4.8719411233346488  9.0078292790854384 18.7760640596236357   T   T   T
  9.5492972269564529  4.3720591581964063 18.7747449917799116   T   T   T
  0.2929214058353238  8.8262820706873235 21.4681995339333902   T   T   T
 -0.4075906524461484  9.2946007779248632 20.9708274821688079   T   T   T
