Cu Se Sn H O                            
   1.00000000000000     
    11.4133142365150313    0.0000000000000000    0.0000000000000007
    -5.7066571182575156   12.1679727199262935   -1.4790248148397627
     0.0000000000000000    0.0000000000000000   30.5258828813255150
   Cu   Se   Sn   H    O 
    16    32     8     1     1
Selective dynamics
Direct
  0.1041666666666643  0.2083333333333357  0.5416666666666643   F   F   F
  0.2727385851376809  0.1021229285516583  0.6172544168055154   T   T   T
  0.1875000000000000  0.3750000000000000  0.3750000000000000   F   F   F
  0.3958333333333357  0.2916666666666643  0.4583333333333357   F   F   F
  0.1291368653307856  0.4658427575569846  0.6539702548201021   T   T   T
  0.2523683982135125  0.2665539097029352  0.6081251312121836   T   T   T
  0.0676840825000014  0.3563301949999982  0.5154584450000002   F   F   F
  0.4095750880948117  0.0675013960725863  0.5646193878097137   T   T   T
  0.2113538875000032  0.1436698050000018  0.4845415549999998   F   F   F
  0.3254731175000032  0.4299842049999967  0.4418044350000017   F   F   F
  0.1510174158333299  0.0229968616666696  0.3487917783333359   F   F   F
  0.4788222458333351  0.2366824616666676  0.3915288983333340   F   F   F
  0.4712270441812905  0.4162580250356100  0.5866337224204656   T   T   T
  0.0416666666666643  0.0833333333333357  0.4166666666666643   F   F   F
  0.1041666666666643  0.7083333333333357  0.5416666666666643   F   F   F
  0.2769735212600963  0.6058705510409652  0.6156860960361854   T   T   T
  0.1875000000000000  0.8750000000000000  0.3750000000000000   F   F   F
  0.3958333333333357  0.7916666666666643  0.4583333333333357   F   F   F
  0.1276341092838180  0.9623335023936335  0.6530448625329512   T   T   T
  0.2467066953155737  0.7664807087484746  0.6094443752630383   T   T   T
  0.0676840825000014  0.8563301949999982  0.5154584450000002   F   F   F
  0.4045627059968169  0.5662109169795499  0.5618888552851047   T   T   T
  0.2113538875000032  0.6436698050000018  0.4845415549999998   F   F   F
  0.3254731175000032  0.9299842049999967  0.4418044350000017   F   F   F
  0.1510174158333299  0.5229968616666696  0.3487917783333359   F   F   F
  0.4788222458333351  0.7366824616666676  0.3915288983333340   F   F   F
  0.4679380899763643  0.9106187843322644  0.5866684610033488   T   T   T
  0.0416666666666643  0.5833333333333357  0.4166666666666643   F   F   F
  0.6041666666666643  0.2083333333333357  0.5416666666666643   F   F   F
  0.7733774683709242  0.1007277031953890  0.6148788838344217   T   T   T
  0.6875000000000000  0.3750000000000000  0.3750000000000000   F   F   F
  0.8958333333333357  0.2916666666666643  0.4583333333333357   F   F   F
  0.6266590947326804  0.4669801288377684  0.6548718236823845   T   T   T
  0.7490758969565334  0.2637592263987116  0.6083552234586236   T   T   T
  0.5676840825000014  0.3563301949999982  0.5154584450000002   F   F   F
  0.9059759403733949  0.0668082637386433  0.5604412754874204   T   T   T
  0.7113538875000032  0.1436698050000018  0.4845415549999998   F   F   F
  0.8254731175000032  0.4299842049999967  0.4418044350000017   F   F   F
  0.6510174158333299  0.0229968616666696  0.3487917783333359   F   F   F
  0.9788222458333351  0.2366824616666676  0.3915288983333340   F   F   F
  0.9601005393845696  0.4156230482503034  0.5827858822082632   T   T   T
  0.5416666666666643  0.0833333333333357  0.4166666666666643   F   F   F
  0.6041666666666643  0.7083333333333357  0.5416666666666643   F   F   F
  0.7705663260215587  0.6054451374546801  0.6184291215815776   T   T   T
  0.6875000000000000  0.8750000000000000  0.3750000000000000   F   F   F
  0.8958333333333357  0.7916666666666643  0.4583333333333357   F   F   F
  0.6414311501648697  0.9520429104072932  0.6498469793651083   T   T   T
  0.7464691924042341  0.7687425610264853  0.6084710956942772   T   T   T
  0.5676840825000014  0.8563301949999982  0.5154584450000002   F   F   F
  0.9011791973858294  0.5743503167965187  0.5626288899231540   T   T   T
  0.7113538875000032  0.6436698050000018  0.4845415549999998   F   F   F
  0.8254731175000032  0.9299842049999967  0.4418044350000017   F   F   F
  0.6510174158333299  0.5229968616666696  0.3487917783333359   F   F   F
  0.9788222458333351  0.7366824616666676  0.3915288983333340   F   F   F
  0.9685107248207103  0.9147687868927363  0.5858706875147135   T   T   T
  0.5416666666666643  0.5833333333333357  0.4166666666666643   F   F   F
  0.9921402557110781  0.4819015784702643  0.7072549001842461   T   T   T
  0.0532109588952494  0.5392306376045042  0.6910144370222540   T   T   T
 
  0.00000000E+00  0.00000000E+00  0.00000000E+00
  0.00000000E+00  0.00000000E+00  0.00000000E+00
  0.00000000E+00  0.00000000E+00  0.00000000E+00
  0.00000000E+00  0.00000000E+00  0.00000000E+00
  0.00000000E+00  0.00000000E+00  0.00000000E+00
  0.00000000E+00  0.00000000E+00  0.00000000E+00
  0.00000000E+00  0.00000000E+00  0.00000000E+00
  0.00000000E+00  0.00000000E+00  0.00000000E+00
  0.00000000E+00  0.00000000E+00  0.00000000E+00
  0.00000000E+00  0.00000000E+00  0.00000000E+00
  0.00000000E+00  0.00000000E+00  0.00000000E+00
  0.00000000E+00  0.00000000E+00  0.00000000E+00
  0.00000000E+00  0.00000000E+00  0.00000000E+00
  0.00000000E+00  0.00000000E+00  0.00000000E+00
  0.00000000E+00  0.00000000E+00  0.00000000E+00
  0.00000000E+00  0.00000000E+00  0.00000000E+00
  0.00000000E+00  0.00000000E+00  0.00000000E+00
  0.00000000E+00  0.00000000E+00  0.00000000E+00
  0.00000000E+00  0.00000000E+00  0.00000000E+00
  0.00000000E+00  0.00000000E+00  0.00000000E+00
  0.00000000E+00  0.00000000E+00  0.00000000E+00
  0.00000000E+00  0.00000000E+00  0.00000000E+00
  0.00000000E+00  0.00000000E+00  0.00000000E+00
  0.00000000E+00  0.00000000E+00  0.00000000E+00
  0.00000000E+00  0.00000000E+00  0.00000000E+00
  0.00000000E+00  0.00000000E+00  0.00000000E+00
  0.00000000E+00  0.00000000E+00  0.00000000E+00
  0.00000000E+00  0.00000000E+00  0.00000000E+00
  0.00000000E+00  0.00000000E+00  0.00000000E+00
  0.00000000E+00  0.00000000E+00  0.00000000E+00
  0.00000000E+00  0.00000000E+00  0.00000000E+00
  0.00000000E+00  0.00000000E+00  0.00000000E+00
  0.00000000E+00  0.00000000E+00  0.00000000E+00
  0.00000000E+00  0.00000000E+00  0.00000000E+00
  0.00000000E+00  0.00000000E+00  0.00000000E+00
  0.00000000E+00  0.00000000E+00  0.00000000E+00
  0.00000000E+00  0.00000000E+00  0.00000000E+00
  0.00000000E+00  0.00000000E+00  0.00000000E+00
  0.00000000E+00  0.00000000E+00  0.00000000E+00
  0.00000000E+00  0.00000000E+00  0.00000000E+00
  0.00000000E+00  0.00000000E+00  0.00000000E+00
  0.00000000E+00  0.00000000E+00  0.00000000E+00
  0.00000000E+00  0.00000000E+00  0.00000000E+00
  0.00000000E+00  0.00000000E+00  0.00000000E+00
  0.00000000E+00  0.00000000E+00  0.00000000E+00
  0.00000000E+00  0.00000000E+00  0.00000000E+00
  0.00000000E+00  0.00000000E+00  0.00000000E+00
  0.00000000E+00  0.00000000E+00  0.00000000E+00
  0.00000000E+00  0.00000000E+00  0.00000000E+00
  0.00000000E+00  0.00000000E+00  0.00000000E+00
  0.00000000E+00  0.00000000E+00  0.00000000E+00
  0.00000000E+00  0.00000000E+00  0.00000000E+00
  0.00000000E+00  0.00000000E+00  0.00000000E+00
  0.00000000E+00  0.00000000E+00  0.00000000E+00
  0.00000000E+00  0.00000000E+00  0.00000000E+00
  0.00000000E+00  0.00000000E+00  0.00000000E+00
  0.00000000E+00  0.00000000E+00  0.00000000E+00
  0.00000000E+00  0.00000000E+00  0.00000000E+00
