Cu Se Sn H O
 1.0000000000000000
    11.4133142365150313    0.0000000000000000    0.0000000000000007
    -5.7066571182575156   12.1679727199262935   -1.4790248148397627
     0.0000000000000000    0.0000000000000000   30.5258828813255150
Cu Se Sn H O
16 32 8 1 1
Selective dynamics
Cartesian
  0.0000000000000000  2.5349943166513076 16.2267230576263657   F   F   F
  2.5300706394422461  1.2426290086955443 18.6911936898940390   T   T   T
  0.0000000000000000  4.5629897699723596 10.8925717749321578   F   F   F
  2.8533285591287574  3.5489920433118338 13.5596474162792617   F   F   F
 -1.1845252648625457  5.6683619657286526 19.2740264082689237   T   T   T
  1.3592280659711977  3.2434207016549963 18.1693166856305837   T   T   T
 -1.2609545413641314  4.3358160920460165 15.2078029215784767   F   F   F
  4.2894018614844969  0.8213551459681619 17.1356690649774421   T   T   T
  1.5923740177646266  1.7481702679171320 14.5785675523271543   F   F   F
  1.2609545413641317  5.2320360764391953 12.8505131300760400   F   F   F
  1.5923740177646266  0.2798251854039178 10.6131640463041457   F   F   F
  4.1142831004928890  2.8799457368450017 11.6017060611353795   F   F   F
  3.0028205103839438  5.0650162930836649 17.2918563564393182   T   T   T
  0.0000000000000000  1.0139977266605262 12.5958657993156464   F   F   F
 -2.8533285591287578  8.6189806766144539 15.4872106502064852   F   F   F
 -0.2963096595049137  7.3722163368731355 17.8982640796908647   T   T   T
 -2.8533285591287578 10.6469761299355063 10.1530593675122773   F   F   F
 -0.0000000000000004  9.6329784032749810 12.8201350088593813   F   F   F
 -4.0349791350183519 11.7096478045968411 18.5114558597402663   T   T   T
 -1.5583015546977488  9.3265163544011749 17.4701836336271654   T   T   T
 -4.1142831004928890 10.4198024520091632 14.4682905141585962   F   F   F
  1.3862297321000501  6.8896389915316449 16.3147133921091907   T   T   T
 -1.2609545413641312  7.8321566278802788 13.8390551449072738   F   F   F
 -1.5923740177646262 11.3160224364023421 12.1110007226561578   F   F   F
 -1.2609545413641312  6.3638115453670645  9.8736516388842652   F   F   F
  1.2609545413641312  8.9639320968081488 10.8621936537154973   F   F   F
  0.1441352965061924 11.0803845260074390 16.5617449518691373   T   T   T
 -2.8533285591287578  7.0979840866236730 11.8563533918957660   F   F   F
  5.7066571182575156  2.5349943166513076 16.2267230576263657   F   F   F
  8.2519816055121069  1.2256519446223275 18.6207420215618136   T   T   T
  5.7066571182575156  4.5629897699723596 10.8925717749321578   F   F   F
  8.5599856773862726  3.5489920433118338 13.5596474162792617   F   F   F
  4.4873616910372247  5.6822014684456716 19.2998653934204185   T   T   T
  7.0442551321299423  3.2094150714484031 18.1804738605538390   T   T   T
  4.4457025768933844  4.3358160920460165 15.2078029215784767   F   F   F
  9.9589362443812597  0.8129211306374126 17.0091536574838713   T   T   T
  7.2990311360221423  1.7481702679171320 14.5785675523271543   F   F   F
  6.9676116596216477  5.2320360764391953 12.8505131300760400   F   F   F
  7.2990311360221423  0.2798251854039178 10.6131640463041457   F   F   F
  9.8209402187504047  2.8799457368450017 11.6017060611353795   F   F   F
  8.5861109278341488  5.0572899128823172 17.1753367831978423   T   T   T
  5.7066571182575156  1.0139977266605262 12.5958657993156464   F   F   F
  2.8533285591287578  8.6189806766144539 15.4872106502064852   F   F   F
  5.3396478155908138  7.3670399159605733 17.9826265534808165   T   T   T
  2.8533285591287578 10.6469761299355063 10.1530593675122773   F   F   F
  5.7066571182575156  9.6329784032749810 12.8201350088593813   F   F   F
  1.8878728263585745 11.5844321620351707 18.4290576935978549   T   T   T
  4.1327372527978010  9.3540385112165687 17.4371280798537001   T   T   T
  1.5923740177646264 10.4198024520091632 14.4682905141585962   F   F   F
  7.0078210394546048  6.9886789864610437 16.3252652284913111   T   T   T
  4.4457025768933844  7.8321566278802788 13.8390551449072738   F   F   F
  4.1142831004928890 11.3160224364023421 12.1110007226561596   F   F   F
  4.4457025768933844  6.3638115453670645  9.8736516388842652   F   F   F
  6.9676116596216469  8.9639320968081488 10.8621936537154991   F   F   F
  5.8336454345324622 11.1308816439508895 16.5312542550205634   T   T   T
  2.8533285591287578  7.0979840866236730 11.8563533918957660   F   F   F
 -2.8397528044650384  5.8637652605156321 20.8768358573998398   T   T   T
 -2.4698909617705249  6.5613436881200515 20.2962902799075806   T   T   T
