Y Cu S H O                              
   1.00000000000000     
    13.5443797292033210    0.0000000000000000    0.0000000000000008
    -6.7721898646016649   11.7297769239930698    0.0000000000000008
     0.0000000000000000    0.0000000000000000   58.1324000388725111
   Y    Cu   S    H    O 
    24    72    72     1     1
Selective dynamics
Direct
  0.0018474014977983  0.0018754602067617  0.6108144812899141   T   T   T
  0.0000000000000000  0.0000000000000000  0.3888307266666686   F   F   F
  0.1666666666666643  0.3333333333333357  0.3889470511111099   F   F   F
  0.1666666666666643  0.3333333333333357  0.4999418377777758   F   F   F
  0.3334237129759288  0.1667688828897127  0.5001744449267775   T   T   T
  0.3337276781529042  0.1631446903151925  0.6117253621020993   T   T   T
  0.5105540703530735  0.3360325537018838  0.6448587573667552   T   T   T
  0.3468809675139042  0.0137408191018622  0.6531433733712362   T   T   T
  0.1694921335698751  0.1708971212057335  0.6459743037791341   T   T   T
  0.3334213366666674  0.3357577533333327  0.3477250044444418   F   F   F
  0.1642422466666673  0.4976635833333347  0.3477250044444418   F   F   F
  0.0023364166666653  0.1665786633333326  0.3477250044444418   F   F   F
  0.1643302499999990  0.1667546700000031  0.4300527733333368   F   F   F
  0.0024244199999970  0.3356697500000010  0.4300527733333368   F   F   F
  0.3332453299999969  0.4975755800000030  0.4300527733333368   F   F   F
  0.0000880033333317  0.1690910866666684  0.4588361155555560   F   F   F
  0.3309089133333316  0.3309969166666704  0.4588361155555560   F   F   F
  0.1690030833333367  0.4999119966666683  0.4588361155555560   F   F   F
  0.3309969166666704  0.0000880033333317  0.5411638844444440   F   F   F
  0.1690910866666684  0.1690030833333296  0.5411638844444440   F   F   F
  0.4999119966666683  0.3309089133333316  0.5411638844444440   F   F   F
  0.1667546700000031  0.0024244199999970  0.5699472266666703   F   F   F
  0.4975755800000030  0.1643302499999990  0.5699472266666703   F   F   F
  0.3356697500000010  0.3332453299999969  0.5699472266666703   F   F   F
  0.1670297466666639  0.1671066433333337  0.3608713477777812   F   F   F
  0.3328933566666663  0.4999231033333302  0.3608713477777812   F   F   F
  0.0000768966666698  0.3329702533333361  0.3608713477777812   F   F   F
  0.5028440526199205  0.1704505076977298  0.6365756788628261   T   T   T
  0.1738944966696963  0.0054442536204675  0.6420404892784859   T   T   T
  0.3408487328237584  0.3343185006459990  0.6415746100489486   T   T   T
  0.3336964133333353  0.0004399766666694  0.4719824588888883   F   F   F
  0.4995600233333306  0.3332564366666659  0.4719824588888883   F   F   F
  0.1667435633333341  0.1663035866666647  0.4719824588888883   F   F   F
  0.1665897700000016  0.0003630799999996  0.4169064299999974   F   F   F
  0.3337733099999980  0.3334102299999984  0.4169064299999974   F   F   F
  0.4996369200000004  0.1662266900000020  0.4169064299999974   F   F   F
  0.0003630799999996  0.3337733099999980  0.5830935700000026   F   F   F
  0.1662266900000020  0.1665897700000016  0.5830935700000026   F   F   F
  0.3334102299999984  0.4996369200000004  0.5830935700000026   F   F   F
  0.3332564366666659  0.3336964133333353  0.5280175411111117   F   F   F
  0.0004399766666694  0.1667435633333341  0.5280175411111117   F   F   F
  0.1663035866666647  0.4995600233333306  0.5280175411111117   F   F   F
  0.0010657870485105  0.4993580144069227  0.6109819564651815   T   T   T
  0.0000000000000000  0.5000000000000000  0.3888307266666686   F   F   F
  0.1666666666666643  0.8333333333333357  0.3889470511111099   F   F   F
  0.1666666666666643  0.8333333333333357  0.4999418377777758   F   F   F
  0.3333810099249419  0.6669207838583517  0.5002584140949864   T   T   T
  0.3344392092739525  0.6675626303360644  0.6106432797738250   T   T   T
  0.5036974221214052  0.8323978510427708  0.6457107802521875   T   T   T
  0.3306133876056876  0.4956364633984691  0.6455533729673846   T   T   T
  0.1668771430485947  0.6738293723337563  0.6449869060392714   T   T   T
  0.3334213366666674  0.8357577533333327  0.3477250044444418   F   F   F
  0.1642422466666673  0.9976635833333347  0.3477250044444418   F   F   F
  0.0023364166666653  0.6665786633333326  0.3477250044444418   F   F   F
  0.1643302499999990  0.6667546700000031  0.4300527733333368   F   F   F
  0.0024244199999970  0.8356697500000010  0.4300527733333368   F   F   F
  0.3332453299999969  0.9975755800000030  0.4300527733333368   F   F   F
  0.0000880033333317  0.6690910866666684  0.4588361155555560   F   F   F
  0.3309089133333316  0.8309969166666704  0.4588361155555560   F   F   F
  0.1690030833333296  0.9999119966666683  0.4588361155555560   F   F   F
  0.3309969166666704  0.5000880033333317  0.5411638844444440   F   F   F
  0.1690910866666684  0.6690030833333367  0.5411638844444440   F   F   F
  0.4999119966666683  0.8309089133333316  0.5411638844444440   F   F   F
  0.1667546700000031  0.5024244199999970  0.5699472266666703   F   F   F
  0.4975755800000030  0.6643302499999990  0.5699472266666703   F   F   F
  0.3356697500000010  0.8332453299999969  0.5699472266666703   F   F   F
  0.1670297466666639  0.6671066433333337  0.3608713477777812   F   F   F
  0.3328933566666663  0.9999231033333302  0.3608713477777812   F   F   F
  0.0000768966666698  0.8329702533333361  0.3608713477777812   F   F   F
  0.4974214250200220  0.6627265250807568  0.6410137317517624   T   T   T
  0.1707831811788267  0.5078672249510134  0.6412831497272506   T   T   T
  0.3361037056895313  0.8326809223837017  0.6390985854148070   T   T   T
  0.3336964133333353  0.5004399766666694  0.4719824588888883   F   F   F
  0.4995600233333306  0.8332564366666659  0.4719824588888883   F   F   F
  0.1667435633333341  0.6663035866666647  0.4719824588888883   F   F   F
  0.1665897700000016  0.5003630799999996  0.4169064299999974   F   F   F
  0.3337733099999980  0.8334102299999984  0.4169064299999974   F   F   F
  0.4996369200000004  0.6662266900000020  0.4169064299999974   F   F   F
  0.0003630799999996  0.8337733099999980  0.5830935700000026   F   F   F
  0.1662266900000020  0.6665897700000016  0.5830935700000026   F   F   F
  0.3334102299999984  0.9996369200000004  0.5830935700000026   F   F   F
  0.3332564366666659  0.8336964133333353  0.5280175411111117   F   F   F
  0.0004399766666694  0.6667435633333341  0.5280175411111117   F   F   F
  0.1663035866666647  0.9995600233333306  0.5280175411111117   F   F   F
  0.4991501044935234  0.0031166427227589  0.6117020166293656   T   T   T
  0.5000000000000000  0.0000000000000000  0.3888307266666686   F   F   F
  0.6666666666666643  0.3333333333333357  0.3889470511111099   F   F   F
  0.6666666666666643  0.3333333333333357  0.4999418377777758   F   F   F
  0.8332517377140718  0.1664677753865220  0.5003026437044582   T   T   T
  0.8320568058945028  0.1704878114734427  0.6118098164023635   T   T   T
  0.0104826189201077  0.3357228025376173  0.6449584299253317   T   T   T
  0.8301897580714410  0.9960782810060635  0.6465944351220188   T   T   T
  0.5550072712349277  0.0271199395612882  0.6664499499944654   T   T   T
  0.8334213366666674  0.3357577533333327  0.3477250044444418   F   F   F
  0.6642422466666673  0.4976635833333347  0.3477250044444418   F   F   F
  0.5023364166666653  0.1665786633333326  0.3477250044444418   F   F   F
  0.6643302499999990  0.1667546700000031  0.4300527733333368   F   F   F
  0.5024244199999970  0.3356697500000010  0.4300527733333368   F   F   F
  0.8332453299999969  0.4975755800000030  0.4300527733333368   F   F   F
  0.5000880033333317  0.1690910866666684  0.4588361155555560   F   F   F
  0.8309089133333316  0.3309969166666704  0.4588361155555560   F   F   F
  0.6690030833333367  0.4999119966666683  0.4588361155555560   F   F   F
  0.8309969166666704  0.0000880033333317  0.5411638844444440   F   F   F
  0.6690910866666684  0.1690030833333296  0.5411638844444440   F   F   F
  0.9999119966666683  0.3309089133333316  0.5411638844444440   F   F   F
  0.6667546700000031  0.0024244199999970  0.5699472266666703   F   F   F
  0.9975755800000030  0.1643302499999990  0.5699472266666703   F   F   F
  0.8356697500000010  0.3332453299999969  0.5699472266666703   F   F   F
  0.6670297466666639  0.1671066433333337  0.3608713477777812   F   F   F
  0.8328933566666663  0.4999231033333302  0.3608713477777812   F   F   F
  0.5000768966666698  0.3329702533333361  0.3608713477777812   F   F   F
  0.9981556994247640  0.1624933251602272  0.6411041709471448   T   T   T
  0.6677882729437243  0.0059413666507737  0.6423176882779273   T   T   T
  0.8437612290869367  0.3345383092651986  0.6396096347104745   T   T   T
  0.8336964133333353  0.0004399766666694  0.4719824588888883   F   F   F
  0.9995600233333306  0.3332564366666659  0.4719824588888883   F   F   F
  0.6667435633333341  0.1663035866666647  0.4719824588888883   F   F   F
  0.6665897700000016  0.0003630799999996  0.4169064299999974   F   F   F
  0.8337733099999980  0.3334102299999984  0.4169064299999974   F   F   F
  0.9996369200000004  0.1662266900000020  0.4169064299999974   F   F   F
  0.5003630799999996  0.3337733099999980  0.5830935700000026   F   F   F
  0.6662266900000020  0.1665897700000016  0.5830935700000026   F   F   F
  0.8334102299999984  0.4996369200000004  0.5830935700000026   F   F   F
  0.8332564366666659  0.3336964133333353  0.5280175411111117   F   F   F
  0.5004399766666694  0.1667435633333341  0.5280175411111117   F   F   F
  0.6663035866666647  0.4995600233333306  0.5280175411111117   F   F   F
  0.5003569820338285  0.4996588218394393  0.6107185197011447   T   T   T
  0.5000000000000000  0.5000000000000000  0.3888307266666686   F   F   F
  0.6666666666666643  0.8333333333333357  0.3889470511111099   F   F   F
  0.6666666666666643  0.8333333333333357  0.4999418377777758   F   F   F
  0.8332415023676418  0.6665291385544663  0.5002698465426505   T   T   T
  0.8352282465684979  0.6671406356935989  0.6108890581344824   T   T   T
  0.0113892082586347  0.8361378670965749  0.6452329056876778   T   T   T
  0.8271518429584148  0.4904989017514012  0.6450243352684026   T   T   T
  0.6699295023693352  0.6753262041487531  0.6452444634953451   T   T   T
  0.8334213366666674  0.8357577533333327  0.3477250044444418   F   F   F
  0.6642422466666673  0.9976635833333347  0.3477250044444418   F   F   F
  0.5023364166666653  0.6665786633333326  0.3477250044444418   F   F   F
  0.6643302499999990  0.6667546700000031  0.4300527733333368   F   F   F
  0.5024244199999970  0.8356697500000010  0.4300527733333368   F   F   F
  0.8332453299999969  0.9975755800000030  0.4300527733333368   F   F   F
  0.5000880033333317  0.6690910866666684  0.4588361155555560   F   F   F
  0.8309089133333316  0.8309969166666704  0.4588361155555560   F   F   F
  0.6690030833333367  0.9999119966666683  0.4588361155555560   F   F   F
  0.8309969166666704  0.5000880033333317  0.5411638844444440   F   F   F
  0.6690910866666684  0.6690030833333367  0.5411638844444440   F   F   F
  0.9999119966666683  0.8309089133333316  0.5411638844444440   F   F   F
  0.6667546700000031  0.5024244199999970  0.5699472266666703   F   F   F
  0.9975755800000030  0.6643302499999990  0.5699472266666703   F   F   F
  0.8356697500000010  0.8332453299999969  0.5699472266666703   F   F   F
  0.6670297466666639  0.6671066433333337  0.3608713477777812   F   F   F
  0.8328933566666663  0.9999231033333302  0.3608713477777812   F   F   F
  0.5000768966666698  0.8329702533333361  0.3608713477777812   F   F   F
  0.9949539015599456  0.6614221909613960  0.6413262994810509   T   T   T
  0.6695270286657546  0.5080720552112297  0.6410545306101412   T   T   T
  0.8424187255362909  0.8355217047976851  0.6412148064670831   T   T   T
  0.8336964133333353  0.5004399766666694  0.4719824588888883   F   F   F
  0.9995600233333306  0.8332564366666659  0.4719824588888883   F   F   F
  0.6667435633333341  0.6663035866666647  0.4719824588888883   F   F   F
  0.6665897700000016  0.5003630799999996  0.4169064299999974   F   F   F
  0.8337733099999980  0.8334102299999984  0.4169064299999974   F   F   F
  0.9996369200000004  0.6662266900000020  0.4169064299999974   F   F   F
  0.5003630799999996  0.8337733099999980  0.5830935700000026   F   F   F
  0.6662266900000020  0.6665897700000016  0.5830935700000026   F   F   F
  0.8334102299999984  0.9996369200000004  0.5830935700000026   F   F   F
  0.8332564366666659  0.8336964133333353  0.5280175411111117   F   F   F
  0.5004399766666694  0.6667435633333341  0.5280175411111117   F   F   F
  0.6663035866666647  0.9995600233333306  0.5280175411111117   F   F   F
  0.3957733137917430  0.9578912540865332  0.6936473962741445   T   T   T
  0.4344843372384020  0.0248148586648753  0.6838257898530884   T   T   T
 
  0.00000000E+00  0.00000000E+00  0.00000000E+00
  0.00000000E+00  0.00000000E+00  0.00000000E+00
  0.00000000E+00  0.00000000E+00  0.00000000E+00
  0.00000000E+00  0.00000000E+00  0.00000000E+00
  0.00000000E+00  0.00000000E+00  0.00000000E+00
  0.00000000E+00  0.00000000E+00  0.00000000E+00
  0.00000000E+00  0.00000000E+00  0.00000000E+00
  0.00000000E+00  0.00000000E+00  0.00000000E+00
  0.00000000E+00  0.00000000E+00  0.00000000E+00
  0.00000000E+00  0.00000000E+00  0.00000000E+00
  0.00000000E+00  0.00000000E+00  0.00000000E+00
  0.00000000E+00  0.00000000E+00  0.00000000E+00
  0.00000000E+00  0.00000000E+00  0.00000000E+00
  0.00000000E+00  0.00000000E+00  0.00000000E+00
  0.00000000E+00  0.00000000E+00  0.00000000E+00
  0.00000000E+00  0.00000000E+00  0.00000000E+00
  0.00000000E+00  0.00000000E+00  0.00000000E+00
  0.00000000E+00  0.00000000E+00  0.00000000E+00
  0.00000000E+00  0.00000000E+00  0.00000000E+00
  0.00000000E+00  0.00000000E+00  0.00000000E+00
  0.00000000E+00  0.00000000E+00  0.00000000E+00
  0.00000000E+00  0.00000000E+00  0.00000000E+00
  0.00000000E+00  0.00000000E+00  0.00000000E+00
  0.00000000E+00  0.00000000E+00  0.00000000E+00
  0.00000000E+00  0.00000000E+00  0.00000000E+00
  0.00000000E+00  0.00000000E+00  0.00000000E+00
  0.00000000E+00  0.00000000E+00  0.00000000E+00
  0.00000000E+00  0.00000000E+00  0.00000000E+00
  0.00000000E+00  0.00000000E+00  0.00000000E+00
  0.00000000E+00  0.00000000E+00  0.00000000E+00
  0.00000000E+00  0.00000000E+00  0.00000000E+00
  0.00000000E+00  0.00000000E+00  0.00000000E+00
  0.00000000E+00  0.00000000E+00  0.00000000E+00
  0.00000000E+00  0.00000000E+00  0.00000000E+00
  0.00000000E+00  0.00000000E+00  0.00000000E+00
  0.00000000E+00  0.00000000E+00  0.00000000E+00
  0.00000000E+00  0.00000000E+00  0.00000000E+00
  0.00000000E+00  0.00000000E+00  0.00000000E+00
  0.00000000E+00  0.00000000E+00  0.00000000E+00
  0.00000000E+00  0.00000000E+00  0.00000000E+00
  0.00000000E+00  0.00000000E+00  0.00000000E+00
  0.00000000E+00  0.00000000E+00  0.00000000E+00
  0.00000000E+00  0.00000000E+00  0.00000000E+00
  0.00000000E+00  0.00000000E+00  0.00000000E+00
  0.00000000E+00  0.00000000E+00  0.00000000E+00
  0.00000000E+00  0.00000000E+00  0.00000000E+00
  0.00000000E+00  0.00000000E+00  0.00000000E+00
  0.00000000E+00  0.00000000E+00  0.00000000E+00
  0.00000000E+00  0.00000000E+00  0.00000000E+00
  0.00000000E+00  0.00000000E+00  0.00000000E+00
  0.00000000E+00  0.00000000E+00  0.00000000E+00
  0.00000000E+00  0.00000000E+00  0.00000000E+00
  0.00000000E+00  0.00000000E+00  0.00000000E+00
  0.00000000E+00  0.00000000E+00  0.00000000E+00
  0.00000000E+00  0.00000000E+00  0.00000000E+00
  0.00000000E+00  0.00000000E+00  0.00000000E+00
  0.00000000E+00  0.00000000E+00  0.00000000E+00
  0.00000000E+00  0.00000000E+00  0.00000000E+00
  0.00000000E+00  0.00000000E+00  0.00000000E+00
  0.00000000E+00  0.00000000E+00  0.00000000E+00
  0.00000000E+00  0.00000000E+00  0.00000000E+00
  0.00000000E+00  0.00000000E+00  0.00000000E+00
  0.00000000E+00  0.00000000E+00  0.00000000E+00
  0.00000000E+00  0.00000000E+00  0.00000000E+00
  0.00000000E+00  0.00000000E+00  0.00000000E+00
  0.00000000E+00  0.00000000E+00  0.00000000E+00
  0.00000000E+00  0.00000000E+00  0.00000000E+00
  0.00000000E+00  0.00000000E+00  0.00000000E+00
  0.00000000E+00  0.00000000E+00  0.00000000E+00
  0.00000000E+00  0.00000000E+00  0.00000000E+00
  0.00000000E+00  0.00000000E+00  0.00000000E+00
  0.00000000E+00  0.00000000E+00  0.00000000E+00
  0.00000000E+00  0.00000000E+00  0.00000000E+00
  0.00000000E+00  0.00000000E+00  0.00000000E+00
  0.00000000E+00  0.00000000E+00  0.00000000E+00
  0.00000000E+00  0.00000000E+00  0.00000000E+00
  0.00000000E+00  0.00000000E+00  0.00000000E+00
  0.00000000E+00  0.00000000E+00  0.00000000E+00
  0.00000000E+00  0.00000000E+00  0.00000000E+00
  0.00000000E+00  0.00000000E+00  0.00000000E+00
  0.00000000E+00  0.00000000E+00  0.00000000E+00
  0.00000000E+00  0.00000000E+00  0.00000000E+00
  0.00000000E+00  0.00000000E+00  0.00000000E+00
  0.00000000E+00  0.00000000E+00  0.00000000E+00
  0.00000000E+00  0.00000000E+00  0.00000000E+00
  0.00000000E+00  0.00000000E+00  0.00000000E+00
  0.00000000E+00  0.00000000E+00  0.00000000E+00
  0.00000000E+00  0.00000000E+00  0.00000000E+00
  0.00000000E+00  0.00000000E+00  0.00000000E+00
  0.00000000E+00  0.00000000E+00  0.00000000E+00
  0.00000000E+00  0.00000000E+00  0.00000000E+00
  0.00000000E+00  0.00000000E+00  0.00000000E+00
  0.00000000E+00  0.00000000E+00  0.00000000E+00
  0.00000000E+00  0.00000000E+00  0.00000000E+00
  0.00000000E+00  0.00000000E+00  0.00000000E+00
  0.00000000E+00  0.00000000E+00  0.00000000E+00
  0.00000000E+00  0.00000000E+00  0.00000000E+00
  0.00000000E+00  0.00000000E+00  0.00000000E+00
  0.00000000E+00  0.00000000E+00  0.00000000E+00
  0.00000000E+00  0.00000000E+00  0.00000000E+00
  0.00000000E+00  0.00000000E+00  0.00000000E+00
  0.00000000E+00  0.00000000E+00  0.00000000E+00
  0.00000000E+00  0.00000000E+00  0.00000000E+00
  0.00000000E+00  0.00000000E+00  0.00000000E+00
  0.00000000E+00  0.00000000E+00  0.00000000E+00
  0.00000000E+00  0.00000000E+00  0.00000000E+00
  0.00000000E+00  0.00000000E+00  0.00000000E+00
  0.00000000E+00  0.00000000E+00  0.00000000E+00
  0.00000000E+00  0.00000000E+00  0.00000000E+00
  0.00000000E+00  0.00000000E+00  0.00000000E+00
  0.00000000E+00  0.00000000E+00  0.00000000E+00
  0.00000000E+00  0.00000000E+00  0.00000000E+00
  0.00000000E+00  0.00000000E+00  0.00000000E+00
  0.00000000E+00  0.00000000E+00  0.00000000E+00
  0.00000000E+00  0.00000000E+00  0.00000000E+00
  0.00000000E+00  0.00000000E+00  0.00000000E+00
  0.00000000E+00  0.00000000E+00  0.00000000E+00
  0.00000000E+00  0.00000000E+00  0.00000000E+00
  0.00000000E+00  0.00000000E+00  0.00000000E+00
  0.00000000E+00  0.00000000E+00  0.00000000E+00
  0.00000000E+00  0.00000000E+00  0.00000000E+00
  0.00000000E+00  0.00000000E+00  0.00000000E+00
  0.00000000E+00  0.00000000E+00  0.00000000E+00
  0.00000000E+00  0.00000000E+00  0.00000000E+00
  0.00000000E+00  0.00000000E+00  0.00000000E+00
  0.00000000E+00  0.00000000E+00  0.00000000E+00
  0.00000000E+00  0.00000000E+00  0.00000000E+00
  0.00000000E+00  0.00000000E+00  0.00000000E+00
  0.00000000E+00  0.00000000E+00  0.00000000E+00
  0.00000000E+00  0.00000000E+00  0.00000000E+00
  0.00000000E+00  0.00000000E+00  0.00000000E+00
  0.00000000E+00  0.00000000E+00  0.00000000E+00
  0.00000000E+00  0.00000000E+00  0.00000000E+00
  0.00000000E+00  0.00000000E+00  0.00000000E+00
  0.00000000E+00  0.00000000E+00  0.00000000E+00
  0.00000000E+00  0.00000000E+00  0.00000000E+00
  0.00000000E+00  0.00000000E+00  0.00000000E+00
  0.00000000E+00  0.00000000E+00  0.00000000E+00
  0.00000000E+00  0.00000000E+00  0.00000000E+00
  0.00000000E+00  0.00000000E+00  0.00000000E+00
  0.00000000E+00  0.00000000E+00  0.00000000E+00
  0.00000000E+00  0.00000000E+00  0.00000000E+00
  0.00000000E+00  0.00000000E+00  0.00000000E+00
  0.00000000E+00  0.00000000E+00  0.00000000E+00
  0.00000000E+00  0.00000000E+00  0.00000000E+00
  0.00000000E+00  0.00000000E+00  0.00000000E+00
  0.00000000E+00  0.00000000E+00  0.00000000E+00
  0.00000000E+00  0.00000000E+00  0.00000000E+00
  0.00000000E+00  0.00000000E+00  0.00000000E+00
  0.00000000E+00  0.00000000E+00  0.00000000E+00
  0.00000000E+00  0.00000000E+00  0.00000000E+00
  0.00000000E+00  0.00000000E+00  0.00000000E+00
  0.00000000E+00  0.00000000E+00  0.00000000E+00
  0.00000000E+00  0.00000000E+00  0.00000000E+00
  0.00000000E+00  0.00000000E+00  0.00000000E+00
  0.00000000E+00  0.00000000E+00  0.00000000E+00
  0.00000000E+00  0.00000000E+00  0.00000000E+00
  0.00000000E+00  0.00000000E+00  0.00000000E+00
  0.00000000E+00  0.00000000E+00  0.00000000E+00
  0.00000000E+00  0.00000000E+00  0.00000000E+00
  0.00000000E+00  0.00000000E+00  0.00000000E+00
  0.00000000E+00  0.00000000E+00  0.00000000E+00
  0.00000000E+00  0.00000000E+00  0.00000000E+00
  0.00000000E+00  0.00000000E+00  0.00000000E+00
  0.00000000E+00  0.00000000E+00  0.00000000E+00
  0.00000000E+00  0.00000000E+00  0.00000000E+00
  0.00000000E+00  0.00000000E+00  0.00000000E+00
  0.00000000E+00  0.00000000E+00  0.00000000E+00
  0.00000000E+00  0.00000000E+00  0.00000000E+00
  0.00000000E+00  0.00000000E+00  0.00000000E+00
