Ta Te Cl H O
 1.0000000000000000
     9.9111196088141611    0.0000000000000000   -0.6838774802203457
     4.3762242466317618   11.3243422398367120    1.7604012360617689
     0.0000000000000000    0.0000000000000000   33.1015516986559746
Ta Te Cl H O
4 8 24 1 1
Selective dynamics
Cartesian
  7.1439711770382148  2.2901901301893037 18.8063973759264087   F   F   F
  2.1884113726311343  2.2901901301893037 13.6314108329272567   F   F   F
 12.0989324828147886  9.0341521096474082 15.0297393384608107   F   F   F
  7.1747918384777796  9.0265390488988544 20.8569711151743320   T   T   T
  5.2156681593419716  5.7157242741008112 14.0411583408350609   F   F   F
 10.3514432789293007  5.3458748778952021 19.2296913239588463   T   T   T
  4.2117446940267538  5.7333889418418940 20.9933963327980351   T   T   T
  9.0716756961039486  5.6086179657359017 14.6199918305530048   F   F   F
  2.5838436932959614  3.6006750693322758 20.0934353423574876   T   T   T
  7.1675988260208561  3.8093292386565660 13.7750499977755361   F   F   F
  7.1197450294250650  7.5150130011801464 14.8861001736125313   F   F   F
 11.9187866058729739  7.3618567110819511 20.3396173040848289   T   T   T
  7.7533125559696998  0.1291732483887288 19.4893638460443235   T   T   T
  2.8076657216273797  0.1517836695866252 14.3544425310237962   F   F   F
 11.4796781338185401 11.1725585702500876 14.3067076403642695   F   F   F
  6.5241183294114595 11.1725585702500876 20.1655716635837692   F   F   F
  9.3261033981793524  2.6843702129854106 17.7657004253520512   F   F   F
  4.3705435937722674  2.6843702129854106 12.5907138823528939   F   F   F
  9.9168002616736501  8.6399720268513018 16.0704362890351717   F   F   F
  5.0376350098461558  8.5600397252914089 21.9837703218420515   T   T   T
  3.0834286551399295  3.2393645620873035 15.6396813581092040   F   F   F
  8.0975499502501513  3.1484267634191387 20.8332616582160988   T   T   T
  6.2483553958989120  8.0849776777494089 18.8803328364983614   F   F   F
 11.2039152003059908  8.0849776777494089 13.0214688132788599   F   F   F
  2.8050743702745509  6.8063447232849548 16.4440815951356143   F   F   F
  7.8471634426916843  6.8628598412248074 21.6203681882914900   T   T   T
  6.5267096807642915  4.5179975165517572 18.0759325994719511   F   F   F
 11.4822694851713702  4.5179975165517572 12.2170685762524496   F   F   F
 12.8821259507893693  9.8959462181714830 17.0740372999373733   F   F   F
  7.9344466741703616  9.9647823833233620 22.8821966381316102   T   T   T
  6.3607777090636368  1.4283960216652292 16.7620994144498461   F   F   F
  1.4052179046565536  1.4283960216652292 11.5871128714506959   F   F   F
  4.3418229873195351  9.2121765450721789 14.6632144704554559   F   F   F
  9.2973827917266156  9.2121765450721789 19.8382010134546114   F   F   F
  2.3085481178103464  2.4147672109603979 22.1698234108942067   T   T   T
  9.9455208681263851  2.1121656947645340 13.9979357009326080   F   F   F
  5.2914048306972390  1.4486239907323126 20.3537348720817022   T   T   T
  5.4139883496639643  2.1630337613301913 19.6994123068346134   T   T   T
