Bi Te Pb                                
   1.00000000000000     
     9.1435304498851977    0.0000000000000000    0.0000000000000006
    -4.5717652249426015    7.9185296498771365    0.0000000000000006
     0.0000000000000000    0.0000000000000000   55.8611204699999959
   Bi   Te   Pb
     8    20     8
Selective dynamics
Direct
  0.3333333333333357  0.1666666666666643  0.5365187100000028   F   F   F
  0.1666666666666643  0.3333333333333357  0.4634812899999972   F   F   F
  0.1666666666666643  0.3333333333333357  0.3575093099999975   F   F   F
  0.1666666666666643  0.3333333333333357  0.5671627899999976   F   F   F
  0.3333333333333357  0.1666666666666643  0.4328372100000024   F   F   F
  0.0000000000000000  0.0000000000000000  0.5000000000000000   F   F   F
  0.3331047404551200  0.1665893898224695  0.6489024297456609   T   T   T
  0.9996256746899874  0.9997256330384303  0.6208394053434176   T   T   T
  0.0000000000000000  0.0000000000000000  0.3864436799999993   F   F   F
  0.3333333333333357  0.6666666666666643  0.5365187100000028   F   F   F
  0.1666666666666643  0.8333333333333357  0.4634812899999972   F   F   F
  0.1666666666666643  0.8333333333333357  0.3575093099999975   F   F   F
  0.1666666666666643  0.8333333333333357  0.5671627899999976   F   F   F
  0.3333333333333357  0.6666666666666643  0.4328372100000024   F   F   F
  0.0000000000000000  0.5000000000000000  0.5000000000000000   F   F   F
  0.3330704270306484  0.6664929870023357  0.6489765598308992   T   T   T
  0.9998416649717825  0.5000065492280257  0.6208010855976269   T   T   T
  0.0000000000000000  0.5000000000000000  0.3864436799999993   F   F   F
  0.8333333333333357  0.1666666666666643  0.5365187100000028   F   F   F
  0.6666666666666643  0.3333333333333357  0.4634812899999972   F   F   F
  0.6666666666666643  0.3333333333333357  0.3575093099999975   F   F   F
  0.6666666666666643  0.3333333333333357  0.5671627899999976   F   F   F
  0.8333333333333357  0.1666666666666643  0.4328372100000024   F   F   F
  0.5000000000000000  0.0000000000000000  0.5000000000000000   F   F   F
  0.8335838655230319  0.1670176508548096  0.6490444414761711   T   T   T
  0.5000496478332366  0.9999832047584292  0.6208426496708270   T   T   T
  0.5000000000000000  0.0000000000000000  0.3864436799999993   F   F   F
  0.8333333333333357  0.6666666666666643  0.5365187100000028   F   F   F
  0.6666666666666643  0.8333333333333357  0.4634812899999972   F   F   F
  0.6666666666666643  0.8333333333333357  0.3575093099999975   F   F   F
  0.6666666666666643  0.8333333333333357  0.5671627899999976   F   F   F
  0.8333333333333357  0.6666666666666643  0.4328372100000024   F   F   F
  0.5000000000000000  0.5000000000000000  0.5000000000000000   F   F   F
  0.8335863263062109  0.6666802149685154  0.6490991506335391   T   T   T
  0.5003601888619187  0.5002099765900923  0.6208523355230895   T   T   T
  0.5000000000000000  0.5000000000000000  0.3864436799999993   F   F   F
 
  0.00000000E+00  0.00000000E+00  0.00000000E+00
  0.00000000E+00  0.00000000E+00  0.00000000E+00
  0.00000000E+00  0.00000000E+00  0.00000000E+00
  0.00000000E+00  0.00000000E+00  0.00000000E+00
  0.00000000E+00  0.00000000E+00  0.00000000E+00
  0.00000000E+00  0.00000000E+00  0.00000000E+00
  0.00000000E+00  0.00000000E+00  0.00000000E+00
  0.00000000E+00  0.00000000E+00  0.00000000E+00
  0.00000000E+00  0.00000000E+00  0.00000000E+00
  0.00000000E+00  0.00000000E+00  0.00000000E+00
  0.00000000E+00  0.00000000E+00  0.00000000E+00
  0.00000000E+00  0.00000000E+00  0.00000000E+00
  0.00000000E+00  0.00000000E+00  0.00000000E+00
  0.00000000E+00  0.00000000E+00  0.00000000E+00
  0.00000000E+00  0.00000000E+00  0.00000000E+00
  0.00000000E+00  0.00000000E+00  0.00000000E+00
  0.00000000E+00  0.00000000E+00  0.00000000E+00
  0.00000000E+00  0.00000000E+00  0.00000000E+00
  0.00000000E+00  0.00000000E+00  0.00000000E+00
  0.00000000E+00  0.00000000E+00  0.00000000E+00
  0.00000000E+00  0.00000000E+00  0.00000000E+00
  0.00000000E+00  0.00000000E+00  0.00000000E+00
  0.00000000E+00  0.00000000E+00  0.00000000E+00
  0.00000000E+00  0.00000000E+00  0.00000000E+00
  0.00000000E+00  0.00000000E+00  0.00000000E+00
  0.00000000E+00  0.00000000E+00  0.00000000E+00
  0.00000000E+00  0.00000000E+00  0.00000000E+00
  0.00000000E+00  0.00000000E+00  0.00000000E+00
  0.00000000E+00  0.00000000E+00  0.00000000E+00
  0.00000000E+00  0.00000000E+00  0.00000000E+00
  0.00000000E+00  0.00000000E+00  0.00000000E+00
  0.00000000E+00  0.00000000E+00  0.00000000E+00
  0.00000000E+00  0.00000000E+00  0.00000000E+00
  0.00000000E+00  0.00000000E+00  0.00000000E+00
  0.00000000E+00  0.00000000E+00  0.00000000E+00
  0.00000000E+00  0.00000000E+00  0.00000000E+00
