Bi Te Pb
 1.0000000000000000
     9.1435304498851977    0.0000000000000000    0.0000000000000006
    -4.5717652249426015    7.9185296498771365    0.0000000000000006
     0.0000000000000000    0.0000000000000000   55.8611204699999959
Bi Te Pb
8 20 8
Selective dynamics
Cartesian
  2.2858826124712985  1.3197549416461900 29.9705362937189967   F   F   F
 -0.0000000000000009  2.6395098832923791 25.8905841762810063   F   F   F
 -0.0000000000000009  2.6395098832923791 19.9708706350565741   F   F   F
 -0.0000000000000009  2.6395098832923791 31.6823489382913088   F   F   F
  2.2858826124712985  1.3197549416461896 24.1787715317086871   F   F   F
  0.0000000000000000  0.0000000000000000 27.9305602349999980   F   F   F
  2.2841457581177318  1.3191430226641585 36.2484168012978998   T   T   T
 -0.0021683135364583 -0.0021725829201387 34.6807848144119504   T   T   T
  0.0000000000000000  0.0000000000000000 21.5871769633501280   F   F   F
 -0.0000000000000022  5.2790197665847582 29.9705362937189967   F   F   F
 -2.2858826124713016  6.5987747082309474 25.8905841762810063   F   F   F
 -2.2858826124713016  6.5987747082309474 19.9708706350565741   F   F   F
 -2.2858826124713016  6.5987747082309474 31.6823489382913088   F   F   F
 -0.0000000000000022  5.2790197665847582 24.1787715317086871   F   F   F
 -2.2858826124713008  3.9592648249385682 27.9305602349999980   F   F   F
 -0.0016098691344291  5.2776444790131674 36.2525577909200010   T   T   T
 -2.2873602951560090  3.9593166851948673 34.6786442304758253   T   T   T
 -2.2858826124713008  3.9592648249385682 21.5871769633501280   F   F   F
  6.8576478374138974  1.3197549416461900 29.9705362937189967   F   F   F
  4.5717652249425980  2.6395098832923791 25.8905841762810063   F   F   F
  4.5717652249425980  2.6395098832923791 19.9708706350565741   F   F   F
  4.5717652249425980  2.6395098832923791 31.6823489382913088   F   F   F
  6.8576478374138974  1.3197549416461896 24.1787715317086871   F   F   F
  4.5717652249425988  0.0000000000000000 27.9305602349999980   F   F   F
  6.8583339688132314  1.3225342203466623 36.2563497356840898   T   T   T
  4.5722959653189470 -0.0001329936183367 34.6809660461760956   T   T   T
  4.5717652249425988  0.0000000000000000 21.5871769633501280   F   F   F
  4.5717652249425971  5.2790197665847582 29.9705362937189967   F   F   F
  2.2858826124712972  6.5987747082309474 25.8905841762810063   F   F   F
  2.2858826124712972  6.5987747082309474 19.9708706350565741   F   F   F
  2.2858826124712972  6.5987747082309474 31.6823489382913088   F   F   F
  4.5717652249425971  5.2790197665847582 24.1787715317086871   F   F   F
  2.2858826124712981  3.9592648249385682 27.9305602349999980   F   F   F
  4.5740165342384405  5.2791270492146349 36.2594058505146322   T   T   T
  2.2882160466253230  3.9609275307929828 34.6815071087360280   T   T   T
  2.2858826124712981  3.9592648249385682 21.5871769633501280   F   F   F
