Al In Cl O
 1.0000000000000000
    14.5280904599999996    0.0000000000000000    0.0000000000000009
    -0.0000000000000007   11.1979029200000006    0.0000000000000007
     0.0000000000000000    0.0000000000000000   38.3577098800000016
Al In Cl O
8 8 32 1
Selective dynamics
Cartesian
  5.4480339224999996  6.3491941587856200 16.1943266883531329   F   F   F
  1.8160113074999993 10.4476602212143810 20.9890404233531349   F   F   F
  1.8331859897015845  4.8649074330429141 22.1788308526219105   T   T   T
  5.4480339225000005  0.7502426987856196 17.3686694566468667   F   F   F
  4.8221480607633929  8.0753756682336064 21.3778428684967459   T   T   T
  5.8747836789142100  2.3444160983224935 21.9611712047269449   T   T   T
  1.8160113074999997  3.5178317283467448 17.3857301988472948   F   F   F
  1.8160113074999993  9.1167831883467461 16.1772659461527084   F   F   F
  0.0348667633399290  4.7589533141074707 20.8749171265040410   F   F   F
  1.7211988866083145  3.1865304884448680 23.5249064568148221   T   T   T
  3.5283650651678968 10.7536937625406672 23.4669623600235333   T   T   T
  5.4480339224999987  8.0962098995468796 14.8763715994316588   F   F   F
  3.6668893783399303  0.8399981458925294 16.0802033915040390   F   F   F
  5.4480339224999996  2.4972584395468793 18.6866245455683426   F   F   F
  7.2291784666600707  0.8399981458925294 16.0802033915040390   F   F   F
  3.5971558516600699  4.7589533141074707 20.8749171265040410   F   F   F
  5.4480339224999996  4.4814361339572271 15.0673195396196373   F   F   F
  0.0867304701161316 10.4178107428667381 22.2937650966674461   T   T   T
  1.8160113074999999  1.1175153260427730 19.8620332746196375   F   F   F
  5.4480339224999987 10.0803875939572283 18.4956766053803641   F   F   F
  1.8845005939737771  6.7415766253864877 23.2312017917738913   T   T   T
  7.2291784666600707  6.4389496058925300 17.4827927534959642   F   F   F
  3.6668893783399290  6.4389496058925300 17.4827927534959642   F   F   F
  1.8160113074999995  8.7006444804531213 19.6710853344316590   F   F   F
 12.7120791524999994  6.3491941587856200 16.1943266883531329   F   F   F
  9.0800565374999991 10.4476602212143810 20.9890404233531349   F   F   F
  9.0825198766603847  4.8322029995056948 22.1718256099674242   T   T   T
 12.7120791524999994  0.7502426987856196 17.3686694566468667   F   F   F
 12.4001825959627503  8.0395258525988869 21.1565437072357874   T   T   T
 12.9258826299397960  2.4384778487172514 21.9211966595637406   T   T   T
  9.0800565374999991  3.5178317283467448 17.3857301988472948   F   F   F
  9.0800565374999991  9.1167831883467461 16.1772659461527084   F   F   F
  7.2989119933399289  4.7589533141074707 20.8749171265040410   F   F   F
  8.9802129144415943  3.0814381440348999 23.4364042296161621   T   T   T
 10.8377330649550601 10.3997236389183918 22.2920773051633638   T   T   T
 12.7120791524999994  8.0962098995468796 14.8763715994316588   F   F   F
 10.9309346083399301  0.8399981458925294 16.0802033915040390   F   F   F
 12.7120791524999994  2.4972584395468793 18.6866245455683426   F   F   F
 14.4932236966600705  0.8399981458925294 16.0802033915040390   F   F   F
 10.8612010816600701  4.7589533141074707 20.8749171265040410   F   F   F
 12.7120791524999994  4.4814361339572271 15.0673195396196373   F   F   F
  7.3170189147121656 10.4112796775750276 22.2704161968909808   T   T   T
  9.0800565374999991  1.1175153260427730 19.8620332746196375   F   F   F
 12.7120791524999994 10.0803875939572283 18.4956766053803641   F   F   F
  9.1489200810926690  6.6335111442543440 23.3217854598351906   T   T   T
 14.4932236966600705  6.4389496058925300 17.4827927534959642   F   F   F
 10.9309346083399284  6.4389496058925300 17.4827927534959642   F   F   F
  9.0800565374999991  8.7006444804531213 19.6710853344316590   F   F   F
  3.3517740753607113 10.1310463260166621 21.8907492611283843   T   T   T
