Cu Au O                                 
   1.00000000000000     
    11.5570010604156135    0.0000000000000000    0.0000000000000007
     5.7785005302078094   10.0086565098836147    0.0000000000000007
     0.0000000000000000    0.0000000000000000   28.3087555548223619
   Cu   Au   O 
    12    36     1
Selective dynamics
Direct
  0.9876322648872957  0.0093518572541740  0.5812307345517311   T   T   T
  0.1666666666666643  0.1666666666666643  0.4166666666666643   F   F   F
  0.3333333333333357  0.3333333333333357  0.5000000000000000   F   F   F
  0.4166666666666643  0.1666666666666643  0.4166666666666643   F   F   F
  0.0833333333333357  0.3333333333333357  0.5000000000000000   F   F   F
  0.2578735738172568  0.0091832724619465  0.5860676362263177   T   T   T
  0.1666666666666643  0.4166666666666643  0.4166666666666643   F   F   F
  0.3333333333333357  0.0833333333333357  0.5000000000000000   F   F   F
  0.9931510546358950  0.2638283086395958  0.5834882598736897   T   T   T
  0.4166666666666643  0.4166666666666643  0.4166666666666643   F   F   F
  0.0833333333333357  0.0833333333333357  0.5000000000000000   F   F   F
  0.2540455342246588  0.2548862642374843  0.5843445789624013   T   T   T
  0.0011043997026334  0.5011855304506980  0.5790354604468888   T   T   T
  0.1666666666666643  0.6666666666666643  0.4166666666666643   F   F   F
  0.3333333333333357  0.8333333333333357  0.5000000000000000   F   F   F
  0.4166666666666643  0.6666666666666643  0.4166666666666643   F   F   F
  0.0833333333333357  0.8333333333333357  0.5000000000000000   F   F   F
  0.2529527192651884  0.4950455305866228  0.5842802025033791   T   T   T
  0.1666666666666643  0.9166666666666643  0.4166666666666643   F   F   F
  0.3333333333333357  0.5833333333333357  0.5000000000000000   F   F   F
  0.9933074856179047  0.7479465992923835  0.5832978144496295   T   T   T
  0.4166666666666643  0.9166666666666643  0.4166666666666643   F   F   F
  0.0833333333333357  0.5833333333333357  0.5000000000000000   F   F   F
  0.2591522392979897  0.7370797076001452  0.5853886631549230   T   T   T
  0.4988647692204893  0.0051753622613759  0.5788707536021462   T   T   T
  0.6666666666666643  0.1666666666666643  0.4166666666666643   F   F   F
  0.8333333333333357  0.3333333333333357  0.5000000000000000   F   F   F
  0.9166666666666643  0.1666666666666643  0.4166666666666643   F   F   F
  0.5833333333333357  0.3333333333333357  0.5000000000000000   F   F   F
  0.7497493304486653  0.9997505790237682  0.5846225767254083   T   T   T
  0.6666666666666643  0.4166666666666643  0.4166666666666643   F   F   F
  0.8333333333333357  0.0833333333333357  0.5000000000000000   F   F   F
  0.5016263997872343  0.2521788817901083  0.5859268622399370   T   T   T
  0.9166666666666643  0.4166666666666643  0.4166666666666643   F   F   F
  0.5833333333333357  0.0833333333333357  0.5000000000000000   F   F   F
  0.7495790668762368  0.2570252717947241  0.5841690143417964   T   T   T
  0.5005049532900685  0.5000592152966661  0.5787601037227788   T   T   T
  0.6666666666666643  0.6666666666666643  0.4166666666666643   F   F   F
  0.8333333333333357  0.8333333333333357  0.5000000000000000   F   F   F
  0.9166666666666643  0.6666666666666643  0.4166666666666643   F   F   F
  0.5833333333333357  0.8333333333333357  0.5000000000000000   F   F   F
  0.7471110427050789  0.5045527100062799  0.5858216437029284   T   T   T
  0.6666666666666643  0.9166666666666643  0.4166666666666643   F   F   F
  0.8333333333333357  0.5833333333333357  0.5000000000000000   F   F   F
  0.4988960840946817  0.7537007824361126  0.5839265550898745   T   T   T
  0.9166666666666643  0.9166666666666643  0.4166666666666643   F   F   F
  0.5833333333333357  0.5833333333333357  0.5000000000000000   F   F   F
  0.7471518040548375  0.7552161695539539  0.5852685226326173   T   T   T
  0.1430518212455425  0.9300737176495559  0.6201823078930815   T   T   T
 
  0.00000000E+00  0.00000000E+00  0.00000000E+00
  0.00000000E+00  0.00000000E+00  0.00000000E+00
  0.00000000E+00  0.00000000E+00  0.00000000E+00
  0.00000000E+00  0.00000000E+00  0.00000000E+00
  0.00000000E+00  0.00000000E+00  0.00000000E+00
  0.00000000E+00  0.00000000E+00  0.00000000E+00
  0.00000000E+00  0.00000000E+00  0.00000000E+00
  0.00000000E+00  0.00000000E+00  0.00000000E+00
  0.00000000E+00  0.00000000E+00  0.00000000E+00
  0.00000000E+00  0.00000000E+00  0.00000000E+00
  0.00000000E+00  0.00000000E+00  0.00000000E+00
  0.00000000E+00  0.00000000E+00  0.00000000E+00
  0.00000000E+00  0.00000000E+00  0.00000000E+00
  0.00000000E+00  0.00000000E+00  0.00000000E+00
  0.00000000E+00  0.00000000E+00  0.00000000E+00
  0.00000000E+00  0.00000000E+00  0.00000000E+00
  0.00000000E+00  0.00000000E+00  0.00000000E+00
  0.00000000E+00  0.00000000E+00  0.00000000E+00
  0.00000000E+00  0.00000000E+00  0.00000000E+00
  0.00000000E+00  0.00000000E+00  0.00000000E+00
  0.00000000E+00  0.00000000E+00  0.00000000E+00
  0.00000000E+00  0.00000000E+00  0.00000000E+00
  0.00000000E+00  0.00000000E+00  0.00000000E+00
  0.00000000E+00  0.00000000E+00  0.00000000E+00
  0.00000000E+00  0.00000000E+00  0.00000000E+00
  0.00000000E+00  0.00000000E+00  0.00000000E+00
  0.00000000E+00  0.00000000E+00  0.00000000E+00
  0.00000000E+00  0.00000000E+00  0.00000000E+00
  0.00000000E+00  0.00000000E+00  0.00000000E+00
  0.00000000E+00  0.00000000E+00  0.00000000E+00
  0.00000000E+00  0.00000000E+00  0.00000000E+00
  0.00000000E+00  0.00000000E+00  0.00000000E+00
  0.00000000E+00  0.00000000E+00  0.00000000E+00
  0.00000000E+00  0.00000000E+00  0.00000000E+00
  0.00000000E+00  0.00000000E+00  0.00000000E+00
  0.00000000E+00  0.00000000E+00  0.00000000E+00
  0.00000000E+00  0.00000000E+00  0.00000000E+00
  0.00000000E+00  0.00000000E+00  0.00000000E+00
  0.00000000E+00  0.00000000E+00  0.00000000E+00
  0.00000000E+00  0.00000000E+00  0.00000000E+00
  0.00000000E+00  0.00000000E+00  0.00000000E+00
  0.00000000E+00  0.00000000E+00  0.00000000E+00
  0.00000000E+00  0.00000000E+00  0.00000000E+00
  0.00000000E+00  0.00000000E+00  0.00000000E+00
  0.00000000E+00  0.00000000E+00  0.00000000E+00
  0.00000000E+00  0.00000000E+00  0.00000000E+00
  0.00000000E+00  0.00000000E+00  0.00000000E+00
  0.00000000E+00  0.00000000E+00  0.00000000E+00
  0.00000000E+00  0.00000000E+00  0.00000000E+00
