Cu Au O
 1.0000000000000000
    11.5570010604156135    0.0000000000000000    0.0000000000000007
     5.7785005302078094   10.0086565098836147    0.0000000000000007
     0.0000000000000000    0.0000000000000000   28.3087555548223619
Cu Au O
12 36 1
Selective dynamics
Cartesian
 -0.0888942157107522  0.0935995269865089 16.4539187853748530   T   T   T
  2.8892502651039038  1.6681094183139360 11.7953148145093163   F   F   F
  5.7785005302078076  3.3362188366278720 14.1543777774111810   F   F   F
  5.7785005302078067  1.6681094183139360 11.7953148145093163   F   F   F
  2.8892502651039038  3.3362188366278720 14.1543777774111810   F   F   F
  3.0333107108496118  0.0919122197083198 16.5908454525234532   T   T   T
  4.3338753976558557  4.1702735457848394 11.7953148145093163   F   F   F
  4.3338753976558557  0.8340547091569680 14.1543777774111810   F   F   F
  1.4453787525220079  2.6405669187572571 16.5178265178729902   T   T   T
  7.2231256627597595  4.1702735457848394 11.7953148145093163   F   F   F
  1.4446251325519517  0.8340547091569680 14.1543777774111810   F   F   F
  4.4088649214672380  2.5510690678404431 16.5420678456322179   T   T   T
  2.9088644019763104  5.0161938220048761 16.3917733073650282   T   T   T
  5.7785005302078085  6.6724376732557431 11.7953148145093163   F   F   F
  8.6677507953117114  8.3405470915696789 14.1543777774111810   F   F   F
  8.6677507953117114  6.6724376732557431 11.7953148145093163   F   F   F
  5.7785005302078085  8.3405470915696789 14.1543777774111810   F   F   F
  5.7839957057545490  4.9547406723945606 16.5402454281903459   T   T   T
  7.2231256627597604  9.1746018007266468 11.7953148145093163   F   F   F
  7.2231256627597604  5.8383829640987752 14.1543777774111810   F   F   F
  4.2446644247674623  7.4859406000530218 16.5124352449166594   T   T   T
 10.1123759278636633  9.1746018007266468 11.7953148145093163   F   F   F
  4.3338753976558566  5.8383829640987752 14.1543777774111810   F   F   F
  7.2542381855488047  7.3771776137752969 16.5716245698168763   T   T   T
  5.7952865004565544  0.0517984231883020 16.3871106615589355   T   T   T
  8.6677507953117114  1.6681094183139360 11.7953148145093163   F   F   F
 11.5570010604156153  3.3362188366278720 14.1543777774111810   F   F   F
 11.5570010604156135  1.6681094183139360 11.7953148145093163   F   F   F
  8.6677507953117114  3.3362188366278720 14.1543777774111810   F   F   F
  8.6634125277977514 -0.0024963688774733 16.5499376163498795   T   T   T
 10.1123759278636633  4.1702735457848394 11.7953148145093163   F   F   F
 10.1123759278636633  0.8340547091569680 14.1543777774111810   F   F   F
  7.2545126364048720  2.5239718068837065 16.5868603161544428   T   T   T
 13.0016261929675672  4.1702735457848394 11.7953148145093163   F   F   F
  7.2231256627597586  0.8340547091569680 14.1543777774111810   F   F   F
 10.1481067400966047  2.5724776597528476 16.5370978297033702   T   T   T
  8.6739287166436938  5.0049209205062617 16.3839783011718367   T   T   T
 11.5570010604156153  6.6724376732557431 11.7953148145093163   F   F   F
 14.4462513255195191  8.3405470915696789 14.1543777774111810   F   F   F
 14.4462513255195191  6.6724376732557431 11.7953148145093163   F   F   F
 11.5570010604156153  8.3405470915696789 14.1543777774111810   F   F   F
 11.5499212150798769  5.0498947655837547 16.5838817103104788   T   T   T
 13.0016261929675672  9.1746018007266468 11.7953148145093163   F   F   F
 13.0016261929675672  5.8383829640987752 14.1543777774111810   F   F   F
 10.1210029438445552  7.5435322426335407 16.5302341100087773   T   T   T
 15.8908764580714710  9.1746018007266468 11.7953148145093163   F   F   F
 10.1123759278636633  5.8383829640987752 14.1543777774111810   F   F   F
 12.9988512279422572  7.5586992317755577 16.5682235411387495   T   T   T
  1.2491809901915940 -0.6998681410587483 17.5565893535708355   T   T   T
