Ag Te Au                                
   1.00000000000000     
     9.1566205876652838    0.0000000000000000   -0.0000000000000006
     5.7925099915124116    8.6088790334152616   -0.0000000000000004
     0.0000000000000000    0.0000000000000040   32.3607326699999973
   Ag   Te   Au
     4    16     4
Selective dynamics
Direct
  0.5966483977536541  0.2273915148394323  0.6142718349451854   T   T   T
  0.5966636527672193  0.7273905273004857  0.6203624171999778   T   T   T
  0.9076405166836850  0.4433290419603395  0.6252990039444057   T   T   T
  0.2856871635230576  0.0114419540498645  0.6252963917584893   T   T   T
  0.3755889065145226  0.6854043319127072  0.5595365624982733   T   T   T
  0.8177602062838289  0.7693498407236845  0.5595391948111086   T   T   T
  0.8082765528302787  0.2818112151102383  0.5719726847002065   T   T   T
  0.3850774197837055  0.1729717182020352  0.5719644415668270   T   T   T
  0.9033370550000015  0.9321772600000031  0.5057481028571402   F   F   F
  0.2899888350000026  0.5226075799999990  0.5057481028571402   F   F   F
  0.1049006952883076  0.4728103324698907  0.5654324393453223   T   T   T
  0.0884402193074365  0.9819644121504680  0.5654364988474256   T   T   T
  0.5966629449999985  0.2273924200000010  0.4885410685714291   F   F   F
  0.5966629449999985  0.7273924200000010  0.4942518971428598   F   F   F
  0.9033370550000015  0.4321772600000031  0.4770448628571415   F   F   F
  0.2899888350000026  0.0226075799999990  0.4770448628571415   F   F   F
  0.3934848849999995  0.6824653199999986  0.4155235585714294   F   F   F
  0.7998410049999976  0.7723195200000035  0.4155235585714294   F   F   F
  0.7998410049999976  0.2723195200000035  0.4244122642857135   F   F   F
  0.3934848849999995  0.1824653199999986  0.4244122642857135   F   F   F
  0.9033370550000015  0.9321772600000031  0.3628909600000014   F   F   F
  0.2899888350000026  0.5226075799999990  0.3628909600000014   F   F   F
  0.0966629449999985  0.4773924200000010  0.4199679114285715   F   F   F
  0.0966629449999985  0.9773924200000010  0.4199679114285715   F   F   F
 
  0.00000000E+00  0.00000000E+00  0.00000000E+00
  0.00000000E+00  0.00000000E+00  0.00000000E+00
  0.00000000E+00  0.00000000E+00  0.00000000E+00
  0.00000000E+00  0.00000000E+00  0.00000000E+00
  0.00000000E+00  0.00000000E+00  0.00000000E+00
  0.00000000E+00  0.00000000E+00  0.00000000E+00
  0.00000000E+00  0.00000000E+00  0.00000000E+00
  0.00000000E+00  0.00000000E+00  0.00000000E+00
  0.00000000E+00  0.00000000E+00  0.00000000E+00
  0.00000000E+00  0.00000000E+00  0.00000000E+00
  0.00000000E+00  0.00000000E+00  0.00000000E+00
  0.00000000E+00  0.00000000E+00  0.00000000E+00
  0.00000000E+00  0.00000000E+00  0.00000000E+00
  0.00000000E+00  0.00000000E+00  0.00000000E+00
  0.00000000E+00  0.00000000E+00  0.00000000E+00
  0.00000000E+00  0.00000000E+00  0.00000000E+00
  0.00000000E+00  0.00000000E+00  0.00000000E+00
  0.00000000E+00  0.00000000E+00  0.00000000E+00
  0.00000000E+00  0.00000000E+00  0.00000000E+00
  0.00000000E+00  0.00000000E+00  0.00000000E+00
  0.00000000E+00  0.00000000E+00  0.00000000E+00
  0.00000000E+00  0.00000000E+00  0.00000000E+00
  0.00000000E+00  0.00000000E+00  0.00000000E+00
  0.00000000E+00  0.00000000E+00  0.00000000E+00
