Ag Te Au
 1.0000000000000000
     9.1566205876652838   -0.0000000000000000   -0.0000000000000006
     5.7925099915124116    8.6088790334152616   -0.0000000000000004
    -0.0000000000000000    0.0000000000000040   32.3607326699999973
Ag Te Au
4 16 4
Selective dynamics
Cartesian
  6.7804506241611744  1.9575860444777244 19.8782866373714384   T   T   T
  9.6768395839594010  6.2620170595820097 20.0753823415235715   T   T   T
 10.8789077463479131  3.8165660942364661 20.2351339054621704   T   T   T
  2.6822065963032240  0.0985023983211943 20.2350493732119858   T   T   T
  7.4093365547198111  5.9005629824153125 18.1070131180973242   T   T   T
 11.9443865799923223  6.6232397131674805 18.1070983016694065   T   T   T
  9.0334760034192083  2.4260786611438361 18.5094551441255817   T   T   T
  4.5279482357708929  1.4890925982033216 18.5091883902899781   T   T   T
 13.6711607678245919  8.0250012690404890 16.3663791549196596   F   F   F
  5.6825273655441926  4.4990654381658901 16.3663791549196596   F   F   F
  3.6992944410594646  4.0703669579821282 18.2978080125999227   T   T   T
  6.4978522015792599  8.4536128393220871 18.2979393810623812   T   T   T
  6.7805890709281851  1.9575938368955603 15.8095469183561388   F   F   F
  9.6768440666843905  6.2620333536031891 15.9943535150803360   F   F   F
 10.7749057720683865  3.7205617523328565 15.4375212785168099   F   F   F
  2.7862723697879868  0.1946259214582600 15.4375212785168099   F   F   F
  7.5561789838868183  5.8752613843810364 13.4466467970170864   F   F   F
 11.7975091494819644  6.6488053228253401 13.4466467970170864   F   F   F
  8.9012541537257572  2.3443658061177093 13.7342918264193887   F   F   F
  4.6599239881306147  1.5708218676734087 13.7342918264193887   F   F   F
 13.6711607678245919  8.0250012690404890 11.7434173449196599   F   F   F
  5.6825273655441908  4.4990654381658892 11.7434173449196617   F   F   F
  3.6504062749736477  4.1098135952493751 13.5904693117182358   F   F   F
  6.5466612707298522  8.4142531119570041 13.5904693117182358   F   F   F
