V As C                                  
   1.00000000000000     
     9.3716560516584924    0.0000000000000000   -0.0000000000000006
     4.6858280258292497    8.1160922162664217   -0.0000000000000004
     0.0000000000000000    0.0000000000000042   34.3773314399999990
   V    As   C 
    36    18    18
Selective dynamics
Direct
  0.1666666666666643  0.0555555555555571  0.5264918266666641   F   F   F
  0.2778535298232327  0.1666651495450040  0.5867555768785309   T   T   T
  0.2777777777777786  0.1666666666666643  0.3598251599999998   F   F   F
  0.1666666666666643  0.0555555555555571  0.4205245200000007   F   F   F
  0.1668506697634413  0.0556249277565755  0.6434990685588602   T   T   T
  0.2777777777777786  0.1666666666666643  0.4735081733333359   F   F   F
  0.0555555555555571  0.2777777777777786  0.5568415066666645   F   F   F
  0.0555555555555571  0.2777777777777786  0.3901748400000002   F   F   F
  0.1666666666666643  0.3888888888888857  0.5264918266666641   F   F   F
  0.2778770173891800  0.5000070075567749  0.5867534526664926   T   T   T
  0.2777777777777786  0.5000000000000000  0.3598251599999998   F   F   F
  0.1666666666666643  0.3888888888888857  0.4205245200000007   F   F   F
  0.1671899757698796  0.3883683736865251  0.6434426140013088   T   T   T
  0.2777777777777786  0.5000000000000000  0.4735081733333359   F   F   F
  0.0555555555555571  0.6111111111111143  0.5568415066666645   F   F   F
  0.0555555555555571  0.6111111111111143  0.3901748400000002   F   F   F
  0.1666666666666643  0.7222222222222214  0.5264918266666641   F   F   F
  0.2779423188847403  0.8331466720176266  0.5867428171210065   T   T   T
  0.2777777777777786  0.8333333333333357  0.3598251599999998   F   F   F
  0.1666666666666643  0.7222222222222214  0.4205245200000007   F   F   F
  0.1669894571089117  0.7222245612116680  0.6434039012833637   T   T   T
  0.2777777777777786  0.8333333333333357  0.4735081733333359   F   F   F
  0.0555555555555571  0.9444444444444429  0.5568415066666645   F   F   F
  0.0555555555555571  0.9444444444444429  0.3901748400000002   F   F   F
  0.5000000000000000  0.0555555555555571  0.5264918266666641   F   F   F
  0.6111530808751127  0.1665961656653323  0.5867331287162898   T   T   T
  0.6111111111111143  0.1666666666666643  0.3598251599999998   F   F   F
  0.5000000000000000  0.0555555555555571  0.4205245200000007   F   F   F
  0.4993846289335764  0.0560665818004580  0.6433962407298850   T   T   T
  0.6111111111111143  0.1666666666666643  0.4735081733333359   F   F   F
  0.3888888888888857  0.2777777777777786  0.5568415066666645   F   F   F
  0.3888888888888857  0.2777777777777786  0.3901748400000002   F   F   F
  0.5000000000000000  0.3888888888888857  0.5264918266666641   F   F   F
  0.6111849984380697  0.5000578165214691  0.5867170872640983   T   T   T
  0.6111111111111143  0.5000000000000000  0.3598251599999998   F   F   F
  0.5000000000000000  0.3888888888888857  0.4205245200000007   F   F   F
  0.4995667435303304  0.3890166995707105  0.6433619235428267   T   T   T
  0.6111111111111143  0.5000000000000000  0.4735081733333359   F   F   F
  0.3888888888888857  0.6111111111111143  0.5568415066666645   F   F   F
  0.3888888888888857  0.6111111111111143  0.3901748400000002   F   F   F
  0.5000000000000000  0.7222222222222214  0.5264918266666641   F   F   F
  0.6112299058003927  0.8331963746032187  0.5867079251047613   T   T   T
  0.6111111111111143  0.8333333333333357  0.3598251599999998   F   F   F
  0.5000000000000000  0.7222222222222214  0.4205245200000007   F   F   F
  0.4993569125441013  0.7225541470347139  0.6433130753563887   T   T   T
  0.6111111111111143  0.8333333333333357  0.4735081733333359   F   F   F
  0.3888888888888857  0.9444444444444429  0.5568415066666645   F   F   F
  0.3888888888888857  0.9444444444444429  0.3901748400000002   F   F   F
  0.8333333333333357  0.0555555555555571  0.5264918266666641   F   F   F
  0.9442122610902999  0.1668843905589839  0.5867188512785333   T   T   T
  0.9444444444444429  0.1666666666666643  0.3598251599999998   F   F   F
  0.8333333333333357  0.0555555555555571  0.4205245200000007   F   F   F
  0.8335134773658410  0.0554620623989805  0.6433143587131340   T   T   T
  0.9444444444444429  0.1666666666666643  0.4735081733333359   F   F   F
  0.7222222222222214  0.2777777777777786  0.5568415066666645   F   F   F
  0.7222222222222214  0.2777777777777786  0.3901748400000002   F   F   F
  0.8333333333333357  0.3888888888888857  0.5264918266666641   F   F   F
  0.9442538593512069  0.5001534919869073  0.5867008046665063   T   T   T
  0.9444444444444429  0.5000000000000000  0.3598251599999998   F   F   F
  0.8333333333333357  0.3888888888888857  0.4205245200000007   F   F   F
  0.8338219417666011  0.3885396823009728  0.6432793238806411   T   T   T
  0.9444444444444429  0.5000000000000000  0.4735081733333359   F   F   F
  0.7222222222222214  0.6111111111111143  0.5568415066666645   F   F   F
  0.7222222222222214  0.6111111111111143  0.3901748400000002   F   F   F
  0.8333333333333357  0.7222222222222214  0.5264918266666641   F   F   F
  0.9441965505382228  0.8333974631712024  0.5866937460215453   T   T   T
  0.9444444444444429  0.8333333333333357  0.3598251599999998   F   F   F
  0.8333333333333357  0.7222222222222214  0.4205245200000007   F   F   F
  0.8334182715348675  0.7221807408262180  0.6432479732729277   T   T   T
  0.9444444444444429  0.8333333333333357  0.4735081733333359   F   F   F
  0.7222222222222214  0.9444444444444429  0.5568415066666645   F   F   F
  0.7222222222222214  0.9444444444444429  0.3901748400000002   F   F   F
 
  0.00000000E+00  0.00000000E+00  0.00000000E+00
  0.00000000E+00  0.00000000E+00  0.00000000E+00
  0.00000000E+00  0.00000000E+00  0.00000000E+00
  0.00000000E+00  0.00000000E+00  0.00000000E+00
  0.00000000E+00  0.00000000E+00  0.00000000E+00
  0.00000000E+00  0.00000000E+00  0.00000000E+00
  0.00000000E+00  0.00000000E+00  0.00000000E+00
  0.00000000E+00  0.00000000E+00  0.00000000E+00
  0.00000000E+00  0.00000000E+00  0.00000000E+00
  0.00000000E+00  0.00000000E+00  0.00000000E+00
  0.00000000E+00  0.00000000E+00  0.00000000E+00
  0.00000000E+00  0.00000000E+00  0.00000000E+00
  0.00000000E+00  0.00000000E+00  0.00000000E+00
  0.00000000E+00  0.00000000E+00  0.00000000E+00
  0.00000000E+00  0.00000000E+00  0.00000000E+00
  0.00000000E+00  0.00000000E+00  0.00000000E+00
  0.00000000E+00  0.00000000E+00  0.00000000E+00
  0.00000000E+00  0.00000000E+00  0.00000000E+00
  0.00000000E+00  0.00000000E+00  0.00000000E+00
  0.00000000E+00  0.00000000E+00  0.00000000E+00
  0.00000000E+00  0.00000000E+00  0.00000000E+00
  0.00000000E+00  0.00000000E+00  0.00000000E+00
  0.00000000E+00  0.00000000E+00  0.00000000E+00
  0.00000000E+00  0.00000000E+00  0.00000000E+00
  0.00000000E+00  0.00000000E+00  0.00000000E+00
  0.00000000E+00  0.00000000E+00  0.00000000E+00
  0.00000000E+00  0.00000000E+00  0.00000000E+00
  0.00000000E+00  0.00000000E+00  0.00000000E+00
  0.00000000E+00  0.00000000E+00  0.00000000E+00
  0.00000000E+00  0.00000000E+00  0.00000000E+00
  0.00000000E+00  0.00000000E+00  0.00000000E+00
  0.00000000E+00  0.00000000E+00  0.00000000E+00
  0.00000000E+00  0.00000000E+00  0.00000000E+00
  0.00000000E+00  0.00000000E+00  0.00000000E+00
  0.00000000E+00  0.00000000E+00  0.00000000E+00
  0.00000000E+00  0.00000000E+00  0.00000000E+00
  0.00000000E+00  0.00000000E+00  0.00000000E+00
  0.00000000E+00  0.00000000E+00  0.00000000E+00
  0.00000000E+00  0.00000000E+00  0.00000000E+00
  0.00000000E+00  0.00000000E+00  0.00000000E+00
  0.00000000E+00  0.00000000E+00  0.00000000E+00
  0.00000000E+00  0.00000000E+00  0.00000000E+00
  0.00000000E+00  0.00000000E+00  0.00000000E+00
  0.00000000E+00  0.00000000E+00  0.00000000E+00
  0.00000000E+00  0.00000000E+00  0.00000000E+00
  0.00000000E+00  0.00000000E+00  0.00000000E+00
  0.00000000E+00  0.00000000E+00  0.00000000E+00
  0.00000000E+00  0.00000000E+00  0.00000000E+00
  0.00000000E+00  0.00000000E+00  0.00000000E+00
  0.00000000E+00  0.00000000E+00  0.00000000E+00
  0.00000000E+00  0.00000000E+00  0.00000000E+00
  0.00000000E+00  0.00000000E+00  0.00000000E+00
  0.00000000E+00  0.00000000E+00  0.00000000E+00
  0.00000000E+00  0.00000000E+00  0.00000000E+00
  0.00000000E+00  0.00000000E+00  0.00000000E+00
  0.00000000E+00  0.00000000E+00  0.00000000E+00
  0.00000000E+00  0.00000000E+00  0.00000000E+00
  0.00000000E+00  0.00000000E+00  0.00000000E+00
  0.00000000E+00  0.00000000E+00  0.00000000E+00
  0.00000000E+00  0.00000000E+00  0.00000000E+00
  0.00000000E+00  0.00000000E+00  0.00000000E+00
  0.00000000E+00  0.00000000E+00  0.00000000E+00
  0.00000000E+00  0.00000000E+00  0.00000000E+00
  0.00000000E+00  0.00000000E+00  0.00000000E+00
  0.00000000E+00  0.00000000E+00  0.00000000E+00
  0.00000000E+00  0.00000000E+00  0.00000000E+00
  0.00000000E+00  0.00000000E+00  0.00000000E+00
  0.00000000E+00  0.00000000E+00  0.00000000E+00
  0.00000000E+00  0.00000000E+00  0.00000000E+00
  0.00000000E+00  0.00000000E+00  0.00000000E+00
  0.00000000E+00  0.00000000E+00  0.00000000E+00
  0.00000000E+00  0.00000000E+00  0.00000000E+00
