V As C
 1.0000000000000000
     9.3716560516584924   -0.0000000000000000   -0.0000000000000006
     4.6858280258292497    8.1160922162664217   -0.0000000000000004
    -0.0000000000000000    0.0000000000000042   34.3773314399999990
V As C
36 18 18
Selective dynamics
Cartesian
  1.8222664544891511  0.4508940120148031 18.0993840257710268   F   F   F
  3.3849119429095840  1.3526697229450875 20.1710909406215499   T   T   T
  3.3842091297655670  1.3526820360444050 12.3698287857710305   F   F   F
  1.8222664544891516  0.4508940120148033 14.4565108026869051   F   F   F
  1.8243159344283111  0.4514570431955216 22.1217807611791919   T   T   T
  3.3842091297655670  1.3526820360444056 16.2779474142289686   F   F   F
  1.8222664544891525  2.2544700600740080 19.1427250342289632   F   F   F
  1.8222664544891525  2.2544700600740075 13.4131697942289705   F   F   F
  3.3842091297655674  3.1562580841036105 18.0993840257710268   F   F   F
  4.9471146807526676  4.0581029821101868 20.1710179158804088   T   T   T
  4.9461518050419837  4.0580461081332118 12.3698287857710305   F   F   F
  3.3842091297655683  3.1562580841036105 14.4565108026869051   F   F   F
  3.3866743579664575  3.1520335347212676 22.1198400041429828   T   T   T
  4.9461518050419837  4.0580461081332126 16.2779474142289686   F   F   F
  3.3842091297655692  4.9598341321628148 19.1427250342289632   F   F   F
  3.3842091297655692  4.9598341321628148 13.4131697942289705   F   F   F
  4.9461518050419837  5.8616221561924178 18.0993840257710268   F   F   F
  6.5087618401547704  6.7618952197705617 20.1706522942081641   T   T   T
  6.5080944803184000  6.7634101802220190 12.3698287857710305   F   F   F
  4.9461518050419846  5.8616221561924178 14.4565108026869051   F   F   F
  4.9491878461457528  5.8616411396464727 22.1185091642072926   T   T   T
  6.5080944803184000  6.7634101802220199 16.2779474142289686   F   F   F
  4.9461518050419855  7.6651982042516220 19.1427250342289632   F   F   F
  4.9461518050419855  7.6651982042516220 13.4131697942289705   F   F   F
  4.9461518050419819  0.4508940120148031 18.0993840257710268   F   F   F
  6.5081574509432656  1.3521098434162369 20.1703192327081773   T   T   T
  6.5080944803183982  1.3526820360444050 12.3698287857710305   F   F   F
  4.9461518050419819  0.4508940120148033 14.4565108026869051   F   F   F
  4.9427793401636428  0.4550415481433883 22.1182458148213605   T   T   T
  6.5080944803183982  1.3526820360444056 16.2779474142289686   F   F   F
  4.9461518050419837  2.2544700600740080 19.1427250342289632   F   F   F
  4.9461518050419837  2.2544700600740075 13.4131697942289705   F   F   F
  6.5080944803183982  3.1562580841036105 18.0993840257710268   F   F   F
  8.0710005204863187  4.0585153523530710 20.1697677703891962   T   T   T
  8.0700371555948145  4.0580461081332118 12.3698287857710305   F   F   F
  6.5080944803183982  3.1562580841036105 14.4565108026869051   F   F   F
  6.5046330485773822  3.1572954073834989 22.1170660815077404   T   T   T
  8.0700371555948145  4.0580461081332126 16.2779474142289686   F   F   F
  6.5080944803184000  4.9598341321628148 19.1427250342289632   F   F   F
  6.5080944803184000  4.9598341321628148 13.4131697942289705   F   F   F
  8.0700371555948145  5.8616221561924178 18.0993840257710268   F   F   F
  9.6324513687839755  6.7622986105386040 20.1694527998011175   T   T   T
  9.6319798308712308  6.7634101802220190 12.3698287857710305   F   F   F
  8.0700371555948145  5.8616221561924178 14.4565108026869051   F   F   F
  8.0655657037358246  5.8643160885794643 22.1153868112123142   T   T   T
  9.6319798308712308  6.7634101802220199 16.2779474142289686   F   F   F
  8.0700371555948163  7.6651982042516220 19.1427250342289632   F   F   F
  8.0700371555948163  7.6651982042516220 13.4131697942289705   F   F   F
  8.0700371555948127  0.4508940120148031 18.0993840257710268   F   F   F
  9.6308241050517847  1.3544491032321631 20.1698284124982159   T   T   T
  9.6319798308712290  1.3526820360444050 12.3698287857710305   F   F   F
  8.0700371555948127  0.4508940120148033 14.4565108026869051   F   F   F
  8.0712873106539096  0.4501352129344449 22.1154309295924882   T   T   T
  9.6319798308712290  1.3526820360444056 16.2779474142289686   F   F   F
  8.0700371555948145  2.2544700600740080 19.1427250342289632   F   F   F
  8.0700371555948145  2.2544700600740075 13.4131697942289705   F   F   F
  9.6319798308712290  3.1562580841036105 18.0993840257710268   F   F   F
 11.1928556452592591  4.0592918632533941 20.1692080181351479   T   T   T
 11.1939225061476453  4.0580461081332118 12.3698287857710305   F   F   F
  9.6319798308712290  3.1562580841036105 14.4565108026869051   F   F   F
  9.6349225790352886  3.1534238912335422 22.1142265255438666   T   T   T
 11.1939225061476453  4.0580461081332126 16.2779474142289686   F   F   F
  9.6319798308712308  4.9598341321628148 19.1427250342289632   F   F   F
  9.6319798308712308  4.9598341321628148 13.4131697942289705   F   F   F
 11.1939225061476453  5.8616221561924178 18.0993840257710268   F   F   F
 12.7538425063892387  6.7639306638999948 20.1689653607577632   T   T   T
 12.7558651814240616  6.7634101802220190 12.3698287857710305   F   F   F
 11.1939225061476453  5.8616221561924178 14.4565108026869051   F   F   F
 11.1945241430701561  5.8612854893572077 22.1131487753117959   T   T   T
 12.7558651814240616  6.7634101802220199 16.2779474142289686   F   F   F
 11.1939225061476471  7.6651982042516220 19.1427250342289632   F   F   F
 11.1939225061476471  7.6651982042516220 13.4131697942289705   F   F   F
