Ag In S H O
 1.0000000000000000
    14.4750361673258041    0.0000000000000000    0.0000000000000009
    -4.4500033945815796   13.7740386899994771    0.0000000000000009
     0.0000000000000000    0.0000000000000000   34.0720075092852923
Ag In S H O
16 16 32 1 1
Selective dynamics
Cartesian
 -2.2250016972907889  6.8870193449997377 13.8417530506471493   F   F   F
  2.2979834483246009  3.4010989415935282 18.4679786277818110   T   T   T
  1.7145286993160482  6.5733996947069153 19.8010329264965605   T   T   T
  6.1250172350175074  3.4435096724998679 15.9712535199774806   F   F   F
 -0.7533678540233066  3.2812862762591366 19.6481976358153645   T   T   T
  3.6187590418314519  0.0000000000000002 15.9712535199774806   F   F   F
  5.0331255413055942  6.8443839047917781 18.0932122319225144   T   T   T
  2.5062581931860564  3.4435096724998679 13.8417530506471493   F   F   F
  6.1337556665754374  0.8620304112993048 20.1408026647212139   T   T   T
  1.3499334423532898  4.3407837137645826 15.9262374558861879   F   F   F
  4.9157120406118509  4.2679904674850908 13.7967369865558549   F   F   F
  2.4094538474257967  0.8244807949852210 18.0557379252165155   F   F   F
  6.0282128892572482  0.8244807949852241 16.0162695840687768   F   F   F
  1.2488582275057085  4.2761421626464493 20.5846748351732423   T   T   T
  2.4624342909986878  0.8972740412647121 13.8867691147384456   F   F   F
  4.8136633961952100  4.3044650882191915 18.1272455955958982   T   T   T
 -4.4500033945815787 13.7740386899994753 13.8417530506471493   F   F   F
  0.0389611045067428 10.2994707744875953 18.3175821014490410   T   T   T
 -0.5159275610311878 13.3870812061349405 19.7647190532260595   T   T   T
  3.9000155377267176 10.3305290174996074 15.9712535199774806   F   F   F
 -3.2013227916803197 10.3263938649999520 20.3023736171270741   T   T   T
  1.3937573445406621  6.8870193449997386 15.9712535199774806   F   F   F
  2.8110942891665363 13.7022509755251356 18.0783945589253179   T   T   T
  0.2812564958952666 10.3305290174996074 13.8417530506471493   F   F   F
  3.9276814861842144  7.7503854677939463 20.1778705901913966   T   T   T
 -0.8750682549375000 11.2278030587643212 15.9262374558861879   F   F   F
  2.6907103433210611 11.1550098124848294 13.7967369865558549   F   F   F
  0.1844521501350069  7.7115001399849596 18.0557379252165155   F   F   F
  3.8032111919664584  7.7115001399849623 16.0162695840687768   F   F   F
 -0.8386013823206280 11.0775947938076982 20.5017138319062688   T   T   T
  0.2374325937078980  7.7842933862644506 13.8867691147384456   F   F   F
  2.6376462301812214 11.1720442263379578 18.1348862908833759   T   T   T
  5.0125163863721127  6.8870193449997377 13.8417530506471493   F   F   F
  9.6209000373707987  3.4034183811079228 18.5819614547697327   T   T   T
  8.9691930018371657  6.5919492354164158 19.8420115798325298   T   T   T
 13.3625353186804094  3.4435096724998679 15.9712535199774806   F   F   F
  6.4880979640639964  3.2896376796750091 19.6702660376721781   T   T   T
 10.8562771254943549  0.0000000000000002 15.9712535199774806   F   F   F
 12.2240160171170906  6.9256945490428397 18.1740433732673026   T   T   T
  9.7437762768489584  3.4435096724998679 13.8417530506471493   F   F   F
 13.3773451996412920  0.8635109944808513 20.1524029203381545   T   T   T
  8.5874515260161921  4.3407837137645826 15.9262374558861879   F   F   F
 12.1532301242747529  4.2679904674850908 13.7967369865558549   F   F   F
  9.6469719310886983  0.8244807949852210 18.0557379252165155   F   F   F
 13.2657309729201494  0.8244807949852241 16.0162695840687768   F   F   F
  8.4669572788156398  4.2842355815928226 20.6304858058310820   T   T   T
  9.6999523746615903  0.8972740412647121 13.8867691147384456   F   F   F
 12.0714411963497490  4.3519621080639324 18.1084198734077724   T   T   T
  2.7875146890813238 13.7740386899994753 13.8417530506471493   F   F   F
  7.6634046417337345 10.3279412180365355 18.8658706721369143   T   T   T
  6.6978630275976059 13.4159934683729496 19.8329914300956318   T   T   T
 11.1375336213896201 10.3305290174996074 15.9712535199774806   F   F   F
  4.2874913222309239 10.1938469800754294 19.7475151627112666   T   T   T
  8.6312754282035655  6.8870193449997386 15.9712535199774806   F   F   F
 10.0349345782631190 13.6471401590705916 18.1015757307220682   T   T   T
  7.5187745795581691 10.3305290174996074 13.8417530506471493   F   F   F
 11.1680332184537274  7.7399795953475197 20.2662681157478985   T   T   T
  6.3624498287254028 11.2278030587643212 15.9262374558861879   F   F   F
  9.9282284269839636 11.1550098124848294 13.7967369865558549   F   F   F
  7.4219702337979090  7.7115001399849596 18.0557379252165155   F   F   F
 11.0407292756293600  7.7115001399849623 16.0162695840687768   F   F   F
  6.2503822320967419 11.1634405874396592 20.7535270508278664   T   T   T
  7.4749506773708010  7.7842933862644506 13.8867691147384456   F   F   F
  9.9929772766829217 11.1207758519252007 18.1576313346357416   T   T   T
 -4.0538736644146880 11.2409016389241607 22.5396929147200709   T   T   T
 -4.5497296017155424 10.9722350857669646 21.7434302468231948   T   T   T
