Ag Te Au H O                            
   1.00000000000000     
     9.1566205876652838    0.0000000000000000   -0.0000000000000006
     5.7925099915124116    8.6088790334152616   -0.0000000000000004
     0.0000000000000000    0.0000000000000040   32.3607326699999973
   Ag   Te   Au   H    O 
     4    16     4     1     1
Selective dynamics
Direct
  0.6955669174872554  0.1064597803027283  0.6215278582934687   T   T   T
  0.6272882272722455  0.7636795096831150  0.6289377824658544   T   T   T
  0.8919918658747932  0.4478965226135188  0.6207087997888792   T   T   T
  0.2801714634750141  0.0265904753371018  0.6203124120315664   T   T   T
  0.3801805548228003  0.6884887040363452  0.5592977218886972   T   T   T
  0.8097625798009602  0.7642137765090382  0.5547859073713184   T   T   T
  0.7887301569407867  0.2696698820509909  0.5741524741120472   T   T   T
  0.3809885451247581  0.1797749706705574  0.5672786363035556   T   T   T
  0.9033370550000015  0.9321772600000031  0.5057481028571402   F   F   F
  0.2899888350000026  0.5226075799999990  0.5057481028571402   F   F   F
  0.0958932259963632  0.4717657734837530  0.5622435627091420   T   T   T
  0.0888871202563450  0.9819721513324993  0.5641777897399152   T   T   T
  0.5966629449999985  0.2273924200000010  0.4885410685714291   F   F   F
  0.5966629449999985  0.7273924200000010  0.4942518971428598   F   F   F
  0.9033370550000015  0.4321772600000031  0.4770448628571415   F   F   F
  0.2899888350000026  0.0226075799999990  0.4770448628571415   F   F   F
  0.3934848849999995  0.6824653199999986  0.4155235585714294   F   F   F
  0.7998410049999976  0.7723195200000035  0.4155235585714294   F   F   F
  0.7998410049999976  0.2723195200000035  0.4244122642857135   F   F   F
  0.3934848849999995  0.1824653199999986  0.4244122642857135   F   F   F
  0.9033370550000015  0.9321772600000031  0.3628909600000014   F   F   F
  0.2899888350000026  0.5226075799999990  0.3628909600000014   F   F   F
  0.0966629449999985  0.4773924200000010  0.4199679114285715   F   F   F
  0.0966629449999985  0.9773924200000010  0.4199679114285715   F   F   F
  0.6190163102859998  0.9849198481062658  0.6850926278353668   T   T   T
  0.6861540978303040  0.9371328867649069  0.6598259747977480   T   T   T
 
  0.00000000E+00  0.00000000E+00  0.00000000E+00
  0.00000000E+00  0.00000000E+00  0.00000000E+00
  0.00000000E+00  0.00000000E+00  0.00000000E+00
  0.00000000E+00  0.00000000E+00  0.00000000E+00
  0.00000000E+00  0.00000000E+00  0.00000000E+00
  0.00000000E+00  0.00000000E+00  0.00000000E+00
  0.00000000E+00  0.00000000E+00  0.00000000E+00
  0.00000000E+00  0.00000000E+00  0.00000000E+00
  0.00000000E+00  0.00000000E+00  0.00000000E+00
  0.00000000E+00  0.00000000E+00  0.00000000E+00
  0.00000000E+00  0.00000000E+00  0.00000000E+00
  0.00000000E+00  0.00000000E+00  0.00000000E+00
  0.00000000E+00  0.00000000E+00  0.00000000E+00
  0.00000000E+00  0.00000000E+00  0.00000000E+00
  0.00000000E+00  0.00000000E+00  0.00000000E+00
  0.00000000E+00  0.00000000E+00  0.00000000E+00
  0.00000000E+00  0.00000000E+00  0.00000000E+00
  0.00000000E+00  0.00000000E+00  0.00000000E+00
  0.00000000E+00  0.00000000E+00  0.00000000E+00
  0.00000000E+00  0.00000000E+00  0.00000000E+00
  0.00000000E+00  0.00000000E+00  0.00000000E+00
  0.00000000E+00  0.00000000E+00  0.00000000E+00
  0.00000000E+00  0.00000000E+00  0.00000000E+00
  0.00000000E+00  0.00000000E+00  0.00000000E+00
  0.00000000E+00  0.00000000E+00  0.00000000E+00
  0.00000000E+00  0.00000000E+00  0.00000000E+00
