Ag Te Au H O
 1.0000000000000000
     9.1566205876652838   -0.0000000000000000   -0.0000000000000006
     5.7925099915124116    8.6088790334152616   -0.0000000000000004
    -0.0000000000000000    0.0000000000000040   32.3607326699999973
Ag Te Au H O
4 16 4 1 1
Selective dynamics
Cartesian
  6.9857116978604648  0.9164993705501761 20.1130968691924679   T   T   T
 10.1674614863938420  6.5744245191598081 20.3528874444401922   T   T   T
 10.7620761655015755  3.8558869826671320 20.0865915358845442   T   T   T
  2.7194493846008139  0.2289141856181016 20.0737641376363527   T   T   T
  7.4692467924944133  5.9271159689217434 18.0992840609802208   T   T   T
 11.8414046454064810  6.5790239576357852 17.9532784375265457   T   T   T
  8.7841682793467850  2.3215553935323241 18.5799947265589935   T   T   T
  4.5299158697870752  1.5476609757385880 18.3575522988215880   T   T   T
 13.6711607678245919  8.0250012690404890 16.3663791549196596   F   F   F
  5.6825273655441926  4.4990654381658901 16.3663791549196596   F   F   F
  3.6107658439341321  4.0613744760272086 18.1946136282590274   T   T   T
  6.5019891332979363  8.4536794650040257 18.2572066321249373   T   T   T
  6.7805890709281851  1.9575938368955603 15.8095469183561388   F   F   F
  9.6768440666843905  6.2620333536031891 15.9943535150803360   F   F   F
 10.7749057720683865  3.7205617523328565 15.4375212785168099   F   F   F
  2.7862723697879868  0.1946259214582600 15.4375212785168099   F   F   F
  7.5561789838868183  5.8752613843810364 13.4466467970170864   F   F   F
 11.7975091494819644  6.6488053228253401 13.4466467970170864   F   F   F
  8.9012541537257572  2.3443658061177093 13.7342918264193887   F   F   F
  4.6599239881306147  1.5708218676734087 13.7342918264193887   F   F   F
 13.6711607678245919  8.0250012690404890 11.7434173449196599   F   F   F
  5.6825273655441908  4.4990654381658892 11.7434173449196617   F   F   F
  3.6504062749736477  4.1098135952493751 13.5904693117182358   F   F   F
  6.5466612707298522  8.4142531119570041 13.5904693117182358   F   F   F
 11.3732555518598293  8.4790558299565664 22.1700993835680684   T   T   T
 11.7112043484644683  8.0676636603943237 21.3524519791520788   T   T   T
