Rb Se O                                 
   1.00000000000000     
    13.0227245800000002    0.0000000000000000    0.0000000000000008
    -0.0000000000000010   16.6933679746582690    0.0000000000000010
     0.0000000000000000    0.0000000000000000   38.5516819754017206
   Rb   Se   O 
    24    24     1
Selective dynamics
Direct
  0.2500000000000000  0.6562587975000014  0.3984353006250032   F   F   F
  0.2455603088758096  0.1602299648953220  0.5233912528083522   T   T   T
  0.2500000000000000  0.5000000000000000  0.5156293987500007   F   F   F
  0.2500000000000000  0.0000000000000000  0.3906293987500007   F   F   F
  0.2500000000000000  0.3437412024999986  0.3984353006250032   F   F   F
  0.2443727673962641  0.8396833754440607  0.5232442766070591   T   T   T
  0.0007382348851621  0.8240105081758244  0.6010382592072858   T   T   T
  0.0000000000000000  0.3237143375000002  0.4815714156249982   F   F   F
  0.9997871524062987  0.5001286981504620  0.5943325952940910   T   T   T
  0.0000000000000000  0.0000000000000000  0.4743571687499966   F   F   F
  0.0019496997918864  0.1756249148995579  0.6010689350561762   T   T   T
  0.0000000000000000  0.6762856624999998  0.4815714156249982   F   F   F
  0.1554513047154913  0.3343113364807522  0.5650885041582967   T   T   T
  0.1540258799999989  0.8333333333333357  0.4375000000000000   F   F   F
  0.3437445944194053  0.3325339314033826  0.5651924035110270   T   T   T
  0.3459741200000011  0.8333333333333357  0.4375000000000000   F   F   F
  0.3442655617748471  0.6688876316523107  0.5654568637814492   T   T   T
  0.3459741200000011  0.1666666666666643  0.4375000000000000   F   F   F
  0.1560608095438099  0.6663824817596975  0.5651550338810551   T   T   T
  0.1540258799999989  0.1666666666666643  0.4375000000000000   F   F   F
  0.4045594850000001  0.5000000000000000  0.4375000000000000   F   F   F
  0.4065903875638952  0.0017355154526157  0.5735030635155667   T   T   T
  0.0954405149999999  0.5000000000000000  0.4375000000000000   F   F   F
  0.0947324083526695  0.9996748004044633  0.5627422459017808   T   T   T
  0.7500000000000000  0.6562587975000014  0.3984353006250032   F   F   F
  0.7510160496333071  0.1574625041028881  0.5239017536916464   T   T   T
  0.7500000000000000  0.5000000000000000  0.5156293987500007   F   F   F
  0.7500000000000000  0.0000000000000000  0.3906293987500007   F   F   F
  0.7500000000000000  0.3437412024999986  0.3984353006250032   F   F   F
  0.7518044051148678  0.8421098244369389  0.5236131614431088   T   T   T
  0.4991639320896581  0.8238069605849958  0.6058539996357410   T   T   T
  0.5000000000000000  0.3237143375000002  0.4815714156249982   F   F   F
  0.5002147938242487  0.5001307529202847  0.5941615674566236   T   T   T
  0.5000000000000000  0.0000000000000000  0.4743571687499966   F   F   F
  0.4958303107474009  0.1764746141354934  0.6071351321881338   T   T   T
  0.5000000000000000  0.6762856624999998  0.4815714156249982   F   F   F
  0.6565209571412041  0.3328185969804309  0.5653984411118387   T   T   T
  0.6540258799999989  0.8333333333333357  0.4375000000000000   F   F   F
  0.8447494172819816  0.3335170471140998  0.5653499661368357   T   T   T
  0.8459741200000011  0.8333333333333357  0.4375000000000000   F   F   F
  0.8440404798326711  0.6667933455182293  0.5655114292474934   T   T   T
  0.8459741200000011  0.1666666666666643  0.4375000000000000   F   F   F
  0.6557423154402287  0.6676095675576406  0.5655867126166214   T   T   T
  0.6540258799999989  0.1666666666666643  0.4375000000000000   F   F   F
  0.9045594850000001  0.5000000000000000  0.4375000000000000   F   F   F
  0.9062237582118868  0.0000192649942790  0.5644788166577825   T   T   T
  0.5954405149999999  0.5000000000000000  0.4375000000000000   F   F   F
  0.5884193509786897  0.9976843864329297  0.5596595206438550   T   T   T
  0.4022746034994995  0.0173319045387927  0.6184927216382050   T   T   T
 
  0.00000000E+00  0.00000000E+00  0.00000000E+00
  0.00000000E+00  0.00000000E+00  0.00000000E+00
  0.00000000E+00  0.00000000E+00  0.00000000E+00
  0.00000000E+00  0.00000000E+00  0.00000000E+00
  0.00000000E+00  0.00000000E+00  0.00000000E+00
  0.00000000E+00  0.00000000E+00  0.00000000E+00
  0.00000000E+00  0.00000000E+00  0.00000000E+00
  0.00000000E+00  0.00000000E+00  0.00000000E+00
  0.00000000E+00  0.00000000E+00  0.00000000E+00
  0.00000000E+00  0.00000000E+00  0.00000000E+00
  0.00000000E+00  0.00000000E+00  0.00000000E+00
  0.00000000E+00  0.00000000E+00  0.00000000E+00
  0.00000000E+00  0.00000000E+00  0.00000000E+00
  0.00000000E+00  0.00000000E+00  0.00000000E+00
  0.00000000E+00  0.00000000E+00  0.00000000E+00
  0.00000000E+00  0.00000000E+00  0.00000000E+00
  0.00000000E+00  0.00000000E+00  0.00000000E+00
  0.00000000E+00  0.00000000E+00  0.00000000E+00
  0.00000000E+00  0.00000000E+00  0.00000000E+00
  0.00000000E+00  0.00000000E+00  0.00000000E+00
  0.00000000E+00  0.00000000E+00  0.00000000E+00
  0.00000000E+00  0.00000000E+00  0.00000000E+00
  0.00000000E+00  0.00000000E+00  0.00000000E+00
  0.00000000E+00  0.00000000E+00  0.00000000E+00
  0.00000000E+00  0.00000000E+00  0.00000000E+00
  0.00000000E+00  0.00000000E+00  0.00000000E+00
  0.00000000E+00  0.00000000E+00  0.00000000E+00
  0.00000000E+00  0.00000000E+00  0.00000000E+00
  0.00000000E+00  0.00000000E+00  0.00000000E+00
  0.00000000E+00  0.00000000E+00  0.00000000E+00
  0.00000000E+00  0.00000000E+00  0.00000000E+00
  0.00000000E+00  0.00000000E+00  0.00000000E+00
  0.00000000E+00  0.00000000E+00  0.00000000E+00
  0.00000000E+00  0.00000000E+00  0.00000000E+00
  0.00000000E+00  0.00000000E+00  0.00000000E+00
  0.00000000E+00  0.00000000E+00  0.00000000E+00
  0.00000000E+00  0.00000000E+00  0.00000000E+00
  0.00000000E+00  0.00000000E+00  0.00000000E+00
  0.00000000E+00  0.00000000E+00  0.00000000E+00
  0.00000000E+00  0.00000000E+00  0.00000000E+00
  0.00000000E+00  0.00000000E+00  0.00000000E+00
  0.00000000E+00  0.00000000E+00  0.00000000E+00
  0.00000000E+00  0.00000000E+00  0.00000000E+00
  0.00000000E+00  0.00000000E+00  0.00000000E+00
  0.00000000E+00  0.00000000E+00  0.00000000E+00
  0.00000000E+00  0.00000000E+00  0.00000000E+00
  0.00000000E+00  0.00000000E+00  0.00000000E+00
  0.00000000E+00  0.00000000E+00  0.00000000E+00
  0.00000000E+00  0.00000000E+00  0.00000000E+00
