Rb Se O
 1.0000000000000000
    13.0227245800000002    0.0000000000000000    0.0000000000000008
    -0.0000000000000010   16.6933679746582690    0.0000000000000010
     0.0000000000000000    0.0000000000000000   38.5516819754017206
Rb Se O
24 24 1
Selective dynamics
Cartesian
  3.2556811449999992 10.9551695932742454 15.3603509974685792   F   F   F
  3.1978642702693665  2.6747777645641460 20.1776131269747445   T   T   T
  3.2556811449999996  8.3466839873291345 19.8783805977776034   F   F   F
  3.2556811450000001  0.0000000000000000 15.0594203508523847   F   F   F
  3.2556811449999996  5.7381983813840236 15.3603509974685792   F   F   F
  3.1823992446539529 14.0171435684908712 20.1719469472045283   T   T   T
  0.0096138295848496 13.7555106279641794 23.1710358240083458   T   T   T
 -0.0000000000000003  5.4038825545602185 18.5653880636190038   F   F   F
 -0.0027718555902543  8.3488323929124189 22.9125212013928135   T   T   T
  0.0000000000000000  0.0000000000000000 18.2872667124019657   F   F   F
  0.0253904034034347  2.9317713299363239 23.1722184295789937   T   T   T
 -0.0000000000000007 11.2894854200980514 18.5653880636190038   F   F   F
  2.0243995269115298  5.5807821579729424 21.7851123002661566   T   T   T
  2.0058366134321295 13.9111399788818915 16.8663608642382528   F   F   F
  4.4764911789877289  5.5511112809764080 21.7891177950701618   T   T   T
  4.5055256765678697 13.9111399788818897 16.8663608642382528   F   F   F
  4.4832755933727659 11.1659873688696969 21.7993131833105522   T   T   T
  4.5055256765678706  2.7822279957763785 16.8663608642382528   F   F   F
  2.0323369404208824 11.1241679798805979 21.7876771329798444   T   T   T
  2.0058366134321304  2.7822279957763780 16.8663608642382528   F   F   F
  5.2684667493816404  8.3466839873291345 16.8663608642382528   F   F   F
  5.2949146341200866  0.0289715980761684 22.1095077165706257   T   T   T
  1.2428955406183586  8.3466839873291345 16.8663608642382528   F   F   F
  1.2336740627768663 -0.0054286765134748 21.6946600981287716   T   T   T
  9.7670434349999997 10.9551695932742454 15.3603509974685792   F   F   F
  9.7802751695342014  2.6285795232006191 20.1972937946756836   T   T   T
  9.7670434349999997  8.3466839873291345 19.8783805977776034   F   F   F
  9.7670434349999997  0.0000000000000000 15.0594203508523847   F   F   F
  9.7670434349999997  5.7381983813840236 15.3603509974685792   F   F   F
  9.7905417058416280 14.0576491744007281 20.1861680780893629   T   T   T
  6.5004744078734458 13.7521127331301276 23.3566907174821843   T   T   T
  6.5113622900000001  5.4038825545602185 18.5653880636190038   F   F   F
  6.5141594908147109  8.3488666939412095 22.9059277905939993   T   T   T
  6.5113622900000001  0.0000000000000000 18.2872667124019657   F   F   F
  6.4570615752792611  2.9459556719496467 23.4060805322105132   T   T   T
  6.5113622899999992 11.2894854200980514 18.5653880636190038   F   F   F
  8.5496916058478956  5.5558633082037776 21.7970608911315153   T   T   T
  8.5171989034321296 13.9111399788818915 16.8663608642382528   F   F   F
 11.0009390003787004  5.5675227932971092 21.7951920993114996   T   T   T
 11.0168879665678698 13.9111399788818897 16.8663608642382528   F   F   F
 10.9917067032318894 11.1310266797892616 21.8014167738043412   T   T   T
 11.0168879665678716  2.7822279957763785 16.8663608642382528   F   F   F
  8.5395515694295892 11.1446521746421912 21.8043190743088431   T   T   T
  8.5171989034321314  2.7822279957763780 16.8663608642382528   F   F   F
 11.7798290393816405  8.3466839873291345 16.8663608642382528   F   F   F
 11.8015024110459343  0.0003215976385036 21.7616078216420661   T   T   T
  7.7542578306183589  8.3466839873291345 16.8663608642382528   F   F   F
  7.6628231453378124 -0.0386553893622477 21.5758158543677396   T   T   T
  5.2387113669027014  0.2893278601677251 23.8439347086966364   T   T   T
