As Rh H O                               
   1.00000000000000     
     8.1640480578242194    0.0000000000000000    0.0000000000000005
    -4.0820240289121124    7.0702730157927807    0.0000000000000005
     0.0000000000000000    0.0000000000000000   39.9955039544587123
   As   Rh   H    O 
    12    24     1     1
Selective dynamics
Direct
  0.0015485053466904  0.0013216969026217  0.5834285999151518   T   T   T
  0.1666666666666643  0.3333333333333357  0.4166666666666643   F   F   F
  0.3333333333333357  0.1666666666666643  0.5000000000000000   F   F   F
  0.1666666666666643  0.3333333333333357  0.4791666666666643   F   F   F
  0.3337977889997816  0.1691341191549540  0.5619734294099601   T   T   T
  0.5000000000000000  0.5000000000000000  0.3958333333333357   F   F   F
  0.3333333333333357  0.1666666666666643  0.4375000000000000   F   F   F
  0.0000000000000000  0.0000000000000000  0.5208333333333357   F   F   F
  0.1685774099323609  0.3345230894632323  0.6046392986186504   T   T   T
  0.0005715965604054  0.5000423734790971  0.5837093696615696   T   T   T
  0.1666666666666643  0.8333333333333357  0.4166666666666643   F   F   F
  0.3333333333333357  0.6666666666666643  0.5000000000000000   F   F   F
  0.1666666666666643  0.8333333333333357  0.4791666666666643   F   F   F
  0.3315092711922460  0.6629638116407151  0.5619609362664733   T   T   T
  0.5000000000000000  0.0000000000000000  0.3958333333333357   F   F   F
  0.3333333333333357  0.6666666666666643  0.4375000000000000   F   F   F
  0.0000000000000000  0.5000000000000000  0.5208333333333357   F   F   F
  0.1681826769511972  0.8341729685737107  0.6005047013389273   T   T   T
  0.5023025381612740  0.0012028720482888  0.5834491044056094   T   T   T
  0.6666666666666643  0.3333333333333357  0.4166666666666643   F   F   F
  0.8333333333333357  0.1666666666666643  0.5000000000000000   F   F   F
  0.6666666666666643  0.3333333333333357  0.4791666666666643   F   F   F
  0.8400494413312813  0.1710922742104373  0.5619125568733949   T   T   T
  0.0000000000000000  0.5000000000000000  0.3958333333333357   F   F   F
  0.8333333333333357  0.1666666666666643  0.4375000000000000   F   F   F
  0.5000000000000000  0.0000000000000000  0.5208333333333357   F   F   F
  0.6686036308526369  0.3340519923743415  0.6010422293533679   T   T   T
  0.5025209248198763  0.5017170074687911  0.5833354558959201   T   T   T
  0.6666666666666643  0.8333333333333357  0.4166666666666643   F   F   F
  0.8333333333333357  0.6666666666666643  0.5000000000000000   F   F   F
  0.6666666666666643  0.8333333333333357  0.4791666666666643   F   F   F
  0.8346121695110966  0.6664594805398139  0.5614906925277978   T   T   T
  0.0000000000000000  0.0000000000000000  0.3958333333333357   F   F   F
  0.8333333333333357  0.6666666666666643  0.4375000000000000   F   F   F
  0.5000000000000000  0.5000000000000000  0.5208333333333357   F   F   F
  0.6691931364992598  0.8351612102435340  0.6003699024304296   T   T   T
  0.1890957645524693  0.3481972705542233  0.6669530938443984   T   T   T
  0.2741836718796904  0.3416941623970899  0.6504678865710787   T   T   T
 
  0.00000000E+00  0.00000000E+00  0.00000000E+00
  0.00000000E+00  0.00000000E+00  0.00000000E+00
  0.00000000E+00  0.00000000E+00  0.00000000E+00
  0.00000000E+00  0.00000000E+00  0.00000000E+00
  0.00000000E+00  0.00000000E+00  0.00000000E+00
  0.00000000E+00  0.00000000E+00  0.00000000E+00
  0.00000000E+00  0.00000000E+00  0.00000000E+00
  0.00000000E+00  0.00000000E+00  0.00000000E+00
  0.00000000E+00  0.00000000E+00  0.00000000E+00
  0.00000000E+00  0.00000000E+00  0.00000000E+00
  0.00000000E+00  0.00000000E+00  0.00000000E+00
  0.00000000E+00  0.00000000E+00  0.00000000E+00
  0.00000000E+00  0.00000000E+00  0.00000000E+00
  0.00000000E+00  0.00000000E+00  0.00000000E+00
  0.00000000E+00  0.00000000E+00  0.00000000E+00
  0.00000000E+00  0.00000000E+00  0.00000000E+00
  0.00000000E+00  0.00000000E+00  0.00000000E+00
  0.00000000E+00  0.00000000E+00  0.00000000E+00
  0.00000000E+00  0.00000000E+00  0.00000000E+00
  0.00000000E+00  0.00000000E+00  0.00000000E+00
  0.00000000E+00  0.00000000E+00  0.00000000E+00
  0.00000000E+00  0.00000000E+00  0.00000000E+00
  0.00000000E+00  0.00000000E+00  0.00000000E+00
  0.00000000E+00  0.00000000E+00  0.00000000E+00
  0.00000000E+00  0.00000000E+00  0.00000000E+00
  0.00000000E+00  0.00000000E+00  0.00000000E+00
  0.00000000E+00  0.00000000E+00  0.00000000E+00
  0.00000000E+00  0.00000000E+00  0.00000000E+00
  0.00000000E+00  0.00000000E+00  0.00000000E+00
  0.00000000E+00  0.00000000E+00  0.00000000E+00
  0.00000000E+00  0.00000000E+00  0.00000000E+00
  0.00000000E+00  0.00000000E+00  0.00000000E+00
  0.00000000E+00  0.00000000E+00  0.00000000E+00
  0.00000000E+00  0.00000000E+00  0.00000000E+00
  0.00000000E+00  0.00000000E+00  0.00000000E+00
  0.00000000E+00  0.00000000E+00  0.00000000E+00
  0.00000000E+00  0.00000000E+00  0.00000000E+00
  0.00000000E+00  0.00000000E+00  0.00000000E+00
