As Rh H O
 1.0000000000000000
     8.1640480578242194    0.0000000000000000    0.0000000000000005
    -4.0820240289121124    7.0702730157927807    0.0000000000000005
     0.0000000000000000    0.0000000000000000   39.9955039544587123
As Rh H O
12 24 1 1
Selective dynamics
Cartesian
  0.0072468735527327  0.0093447579456551 23.3345208750508384   T   T   T
  0.0000000000000009  2.3567576719309287 16.6647933143577944   F   F   F
  2.0410120144560571  1.1783788359654639 19.9977519772293526   F   F   F
  0.0000000000000000  2.3567576719309233 19.1645123115114657   F   F   F
  2.0347316524902910  1.1958243987111672 22.4764105182668530   T   T   T
  2.0410120144560531  3.5351365078963894 15.8315536486399040   F   F   F
  2.0410120144560562  1.1783788359654639 17.4980329800756849   F   F   F
  0.0000000000000009  0.0000000000000000 20.8309916429472430   F   F   F
  0.0107427867364995  2.3651695725915038 24.1828534589232831   T   T   T
 -2.0365184422270879  3.5354360999622481 23.3457504025538576   T   T   T
 -2.0410120144560553  5.8918941798273190 16.6647933143577944   F   F   F
  0.0000000000000009  4.7135153438618538 19.9977519772293526   F   F   F
 -2.0410120144560562  5.8918941798273137 19.1645123115114657   F   F   F
  0.0002234122111977  4.6873351478904590 22.4759108486970902   T   T   T
 -0.0000000000000031  7.0702730157927798 15.8315536486399040   F   F   F
  0.0000000000000000  4.7135153438618538 17.4980329800756849   F   F   F
 -2.0410120144560553  3.5351365078963903 20.8309916429472430   F   F   F
 -2.0320626448637560  5.8978306302104784 24.0174881570721581   T   T   T
  4.0959119085108808  0.0085046337844688 23.3353409624798580   T   T   T
  4.0820240289121106  2.3567576719309287 16.6647933143577944   F   F   F
  6.1230360433681668  1.1783788359654639 19.9977519772293526   F   F   F
  4.0820240289121097  2.3567576719309233 19.1645123115114657   F   F   F
  6.1598012354887484  1.2096690895606770 22.4739758904899602   T   T   T
  6.1230360433681632  3.5351365078963894 15.8315536486399040   F   F   F
  6.1230360433681659  1.1783788359654639 17.4980329800756849   F   F   F
  4.0820240289121106  0.0000000000000000 20.8309916429472430   F   F   F
  4.0949039141386478  2.3618387875561444 24.0389868608992501   T   T   T
  2.0545841000902785  3.5472762194708816 23.3307955330612451   T   T   T
  2.0410120144560544  5.8918941798273190 16.6647933143577944   F   F   F
  4.0820240289121106  4.7135153438618538 19.9977519772293526   F   F   F
  2.0410120144560535  5.8918941798273137 19.1645123115114657   F   F   F
  4.0933102476737062  4.7120504813798982 22.4571032133873771   T   T   T
  4.0820240289121070  7.0702730157927798 15.8315536486399040   F   F   F
  4.0820240289121097  4.7135153438618538 17.4980329800756849   F   F   F
  2.0410120144560544  3.5351365078963903 20.8309916429472430   F   F   F
  2.0541767981166661  5.9048177686216832 24.0120968067942258   T   T   T
  0.1224372841334132  2.4618497661722354 26.6751251022919860   T   T   T
  0.8436448924525997  2.4158710160500414 26.0157909296019909   T   T   T
