Ge S                                    
   1.00000000000000     
    11.7976550077561910    0.0000000000000000    0.0000000000000007
    -0.0000000000000007   11.8000578300000001    0.0000000000000007
     0.0000000000000000    0.0000000000000000   33.9527842490291931
   Ge   S 
    36    36
Selective dynamics
Direct
  0.1666666666666643  0.0833333333333357  0.5465310933333356   F   F   F
  0.0000142544744648  0.2499983300227413  0.6194643190560072   T   T   T
  0.0000000000000000  0.0833333333333357  0.3798644266666642   F   F   F
  0.1666666666666643  0.2500000000000000  0.4534689066666644   F   F   F
  0.1666426812346344  0.0833399673243989  0.6174883561787610   T   T   T
  0.0000000000000000  0.2500000000000000  0.5491759933333356   F   F   F
  0.0000000000000000  0.0833333333333357  0.4508240066666644   F   F   F
  0.1666666666666643  0.2500000000000000  0.3825093266666642   F   F   F
  0.1666666666666643  0.4166666666666643  0.5465310933333356   F   F   F
  0.0000143611436272  0.5833330102668128  0.6194630667493044   T   T   T
  0.0000000000000000  0.4166666666666643  0.3798644266666642   F   F   F
  0.1666666666666643  0.5833333333333357  0.4534689066666644   F   F   F
  0.1666404563807191  0.4166677450907130  0.6174972280396815   T   T   T
  0.0000000000000000  0.5833333333333357  0.5491759933333356   F   F   F
  0.0000000000000000  0.4166666666666643  0.4508240066666644   F   F   F
  0.1666666666666643  0.5833333333333357  0.3825093266666642   F   F   F
  0.1666666666666643  0.7500000000000000  0.5465310933333356   F   F   F
  0.0000138949865942  0.9166678483736632  0.6194463804837156   T   T   T
  0.0000000000000000  0.7500000000000000  0.3798644266666642   F   F   F
  0.1666666666666643  0.9166666666666643  0.4534689066666644   F   F   F
  0.1666427710115812  0.7500073385684161  0.6174934773651870   T   T   T
  0.0000000000000000  0.9166666666666643  0.5491759933333356   F   F   F
  0.0000000000000000  0.7500000000000000  0.4508240066666644   F   F   F
  0.1666666666666643  0.9166666666666643  0.3825093266666642   F   F   F
  0.5000000000000000  0.0833333333333357  0.5465310933333356   F   F   F
  0.3333586630817891  0.2499973192130511  0.6194525671403781   T   T   T
  0.3333333333333357  0.0833333333333357  0.3798644266666642   F   F   F
  0.5000000000000000  0.2500000000000000  0.4534689066666644   F   F   F
  0.4999970783724237  0.0833396352618010  0.6174922635627098   T   T   T
  0.3333333333333357  0.2500000000000000  0.5491759933333356   F   F   F
  0.3333333333333357  0.0833333333333357  0.4508240066666644   F   F   F
  0.5000000000000000  0.2500000000000000  0.3825093266666642   F   F   F
  0.5000000000000000  0.4166666666666643  0.5465310933333356   F   F   F
  0.3333573332114739  0.5833335795617245  0.6194515474532167   T   T   T
  0.3333333333333357  0.4166666666666643  0.3798644266666642   F   F   F
  0.5000000000000000  0.5833333333333357  0.4534689066666644   F   F   F
  0.4999966684362462  0.4166670911330854  0.6175037285980594   T   T   T
  0.3333333333333357  0.5833333333333357  0.5491759933333356   F   F   F
  0.3333333333333357  0.4166666666666643  0.4508240066666644   F   F   F
  0.5000000000000000  0.5833333333333357  0.3825093266666642   F   F   F
  0.5000000000000000  0.7500000000000000  0.5465310933333356   F   F   F
  0.3333575815399286  0.9166671310284116  0.6194337467643365   T   T   T
  0.3333333333333357  0.7500000000000000  0.3798644266666642   F   F   F
  0.5000000000000000  0.9166666666666643  0.4534689066666644   F   F   F
  0.4999978969145147  0.7500097711180729  0.6174984460733270   T   T   T
  0.3333333333333357  0.9166666666666643  0.5491759933333356   F   F   F
  0.3333333333333357  0.7500000000000000  0.4508240066666644   F   F   F
  0.5000000000000000  0.9166666666666643  0.3825093266666642   F   F   F
  0.8333333333333357  0.0833333333333357  0.5465310933333356   F   F   F
  0.6666845516269859  0.2499961602076439  0.6194408839847299   T   T   T
  0.6666666666666643  0.0833333333333357  0.3798644266666642   F   F   F
  0.8333333333333357  0.2500000000000000  0.4534689066666644   F   F   F
  0.8333503555989026  0.0833423567853799  0.6174846896407118   T   T   T
  0.6666666666666643  0.2500000000000000  0.5491759933333356   F   F   F
  0.6666666666666643  0.0833333333333357  0.4508240066666644   F   F   F
  0.8333333333333357  0.2500000000000000  0.3825093266666642   F   F   F
  0.8333333333333357  0.4166666666666643  0.5465310933333356   F   F   F
  0.6666844662995786  0.5833342430584523  0.6194400714072685   T   T   T
  0.6666666666666643  0.4166666666666643  0.3798644266666642   F   F   F
  0.8333333333333357  0.5833333333333357  0.4534689066666644   F   F   F
  0.8333525085335651  0.4166651421552814  0.6174922330510526   T   T   T
  0.6666666666666643  0.5833333333333357  0.5491759933333356   F   F   F
  0.6666666666666643  0.4166666666666643  0.4508240066666644   F   F   F
  0.8333333333333357  0.5833333333333357  0.3825093266666642   F   F   F
  0.8333333333333357  0.7500000000000000  0.5465310933333356   F   F   F
  0.6666808405031759  0.9166680855041989  0.6194213077083290   T   T   T
  0.6666666666666643  0.7500000000000000  0.3798644266666642   F   F   F
  0.8333333333333357  0.9166666666666643  0.4534689066666644   F   F   F
  0.8333497115480455  0.7500093889962116  0.6174869110224890   T   T   T
  0.6666666666666643  0.9166666666666643  0.5491759933333356   F   F   F
  0.6666666666666643  0.7500000000000000  0.4508240066666644   F   F   F
  0.8333333333333357  0.9166666666666643  0.3825093266666642   F   F   F
 
  0.00000000E+00  0.00000000E+00  0.00000000E+00
  0.00000000E+00  0.00000000E+00  0.00000000E+00
  0.00000000E+00  0.00000000E+00  0.00000000E+00
  0.00000000E+00  0.00000000E+00  0.00000000E+00
  0.00000000E+00  0.00000000E+00  0.00000000E+00
  0.00000000E+00  0.00000000E+00  0.00000000E+00
  0.00000000E+00  0.00000000E+00  0.00000000E+00
  0.00000000E+00  0.00000000E+00  0.00000000E+00
  0.00000000E+00  0.00000000E+00  0.00000000E+00
  0.00000000E+00  0.00000000E+00  0.00000000E+00
  0.00000000E+00  0.00000000E+00  0.00000000E+00
  0.00000000E+00  0.00000000E+00  0.00000000E+00
  0.00000000E+00  0.00000000E+00  0.00000000E+00
  0.00000000E+00  0.00000000E+00  0.00000000E+00
  0.00000000E+00  0.00000000E+00  0.00000000E+00
  0.00000000E+00  0.00000000E+00  0.00000000E+00
  0.00000000E+00  0.00000000E+00  0.00000000E+00
  0.00000000E+00  0.00000000E+00  0.00000000E+00
  0.00000000E+00  0.00000000E+00  0.00000000E+00
  0.00000000E+00  0.00000000E+00  0.00000000E+00
  0.00000000E+00  0.00000000E+00  0.00000000E+00
  0.00000000E+00  0.00000000E+00  0.00000000E+00
  0.00000000E+00  0.00000000E+00  0.00000000E+00
  0.00000000E+00  0.00000000E+00  0.00000000E+00
  0.00000000E+00  0.00000000E+00  0.00000000E+00
  0.00000000E+00  0.00000000E+00  0.00000000E+00
  0.00000000E+00  0.00000000E+00  0.00000000E+00
  0.00000000E+00  0.00000000E+00  0.00000000E+00
  0.00000000E+00  0.00000000E+00  0.00000000E+00
  0.00000000E+00  0.00000000E+00  0.00000000E+00
  0.00000000E+00  0.00000000E+00  0.00000000E+00
  0.00000000E+00  0.00000000E+00  0.00000000E+00
  0.00000000E+00  0.00000000E+00  0.00000000E+00
  0.00000000E+00  0.00000000E+00  0.00000000E+00
  0.00000000E+00  0.00000000E+00  0.00000000E+00
  0.00000000E+00  0.00000000E+00  0.00000000E+00
  0.00000000E+00  0.00000000E+00  0.00000000E+00
  0.00000000E+00  0.00000000E+00  0.00000000E+00
  0.00000000E+00  0.00000000E+00  0.00000000E+00
  0.00000000E+00  0.00000000E+00  0.00000000E+00
  0.00000000E+00  0.00000000E+00  0.00000000E+00
  0.00000000E+00  0.00000000E+00  0.00000000E+00
  0.00000000E+00  0.00000000E+00  0.00000000E+00
  0.00000000E+00  0.00000000E+00  0.00000000E+00
  0.00000000E+00  0.00000000E+00  0.00000000E+00
  0.00000000E+00  0.00000000E+00  0.00000000E+00
  0.00000000E+00  0.00000000E+00  0.00000000E+00
  0.00000000E+00  0.00000000E+00  0.00000000E+00
  0.00000000E+00  0.00000000E+00  0.00000000E+00
  0.00000000E+00  0.00000000E+00  0.00000000E+00
  0.00000000E+00  0.00000000E+00  0.00000000E+00
  0.00000000E+00  0.00000000E+00  0.00000000E+00
  0.00000000E+00  0.00000000E+00  0.00000000E+00
  0.00000000E+00  0.00000000E+00  0.00000000E+00
  0.00000000E+00  0.00000000E+00  0.00000000E+00
  0.00000000E+00  0.00000000E+00  0.00000000E+00
  0.00000000E+00  0.00000000E+00  0.00000000E+00
  0.00000000E+00  0.00000000E+00  0.00000000E+00
  0.00000000E+00  0.00000000E+00  0.00000000E+00
  0.00000000E+00  0.00000000E+00  0.00000000E+00
  0.00000000E+00  0.00000000E+00  0.00000000E+00
  0.00000000E+00  0.00000000E+00  0.00000000E+00
  0.00000000E+00  0.00000000E+00  0.00000000E+00
  0.00000000E+00  0.00000000E+00  0.00000000E+00
  0.00000000E+00  0.00000000E+00  0.00000000E+00
  0.00000000E+00  0.00000000E+00  0.00000000E+00
  0.00000000E+00  0.00000000E+00  0.00000000E+00
  0.00000000E+00  0.00000000E+00  0.00000000E+00
  0.00000000E+00  0.00000000E+00  0.00000000E+00
  0.00000000E+00  0.00000000E+00  0.00000000E+00
  0.00000000E+00  0.00000000E+00  0.00000000E+00
  0.00000000E+00  0.00000000E+00  0.00000000E+00
