Cd In Se O                              
   1.00000000000000     
    11.9454120828770254    0.0000000000000000    0.0000000000000007
    -5.9727060414385118   13.6834591530377256   -0.8092229449120690
     0.0000000000000000    0.0000000000000000   32.3117488716703605
   Cd   In   Se   O 
     8    16    32     1
Selective dynamics
Direct
  0.4637996857449451  0.4087795118616242  0.5799026177801707   T   T   T
  0.0416666666666643  0.0833333333333357  0.4166666666666643   F   F   F
  0.1041666666666643  0.2083333333333357  0.5416666666666643   F   F   F
  0.3211110678617217  0.0947561085549111  0.6110425746126964   T   T   T
  0.1875000000000000  0.3750000000000000  0.3750000000000000   F   F   F
  0.3958333333333357  0.2916666666666643  0.4583333333333357   F   F   F
  0.2948303416666676  0.3647107883333334  0.5179321366666656   F   F   F
  0.1399381408199432  0.0500576330426767  0.5579101289403781   T   T   T
  0.0181074737996454  0.2699822752261056  0.6100450627046428   T   T   T
  0.4691419998028934  0.5206379398868606  0.6539219078822782   T   T   T
  0.3781636750000033  0.0313774549999977  0.3512654700000013   F   F   F
  0.2510113425000000  0.2269725800000018  0.3903844949999993   F   F   F
  0.1073720958333340  0.4396940866666696  0.4429488383333364   F   F   F
  0.4301195533333342  0.1352892116666666  0.4820678633333344   F   F   F
  0.4420068271055655  0.9111538657099203  0.5886323971036092   T   T   T
  0.0416666666666643  0.5833333333333357  0.4166666666666643   F   F   F
  0.1041666666666643  0.7083333333333357  0.5416666666666643   F   F   F
  0.3504201813954708  0.6133850620255146  0.6131483806759874   T   T   T
  0.1875000000000000  0.8750000000000000  0.3750000000000000   F   F   F
  0.3958333333333357  0.7916666666666643  0.4583333333333357   F   F   F
  0.2948303416666676  0.8647107883333334  0.5179321366666656   F   F   F
  0.1538079321962513  0.5565708325029775  0.5664373235509714   T   T   T
  0.9940843409077686  0.7521459666845800  0.6101117191918632   T   T   T
  0.3424642409242225  0.9648924330334268  0.6526464510375618   T   T   T
  0.3781636750000033  0.5313774549999977  0.3512654700000013   F   F   F
  0.2510113425000000  0.7269725800000018  0.3903844949999993   F   F   F
  0.1073720958333340  0.9396940866666696  0.4429488383333364   F   F   F
  0.4301195533333342  0.6352892116666666  0.4820678633333344   F   F   F
  0.9271380759931063  0.4091245279633071  0.5930170678487130   T   T   T
  0.5416666666666643  0.0833333333333357  0.4166666666666643   F   F   F
  0.6041666666666643  0.2083333333333357  0.5416666666666643   F   F   F
  0.8303492430862605  0.0998647950330707  0.6131530077707481   T   T   T
  0.6875000000000000  0.3750000000000000  0.3750000000000000   F   F   F
  0.8958333333333357  0.2916666666666643  0.4583333333333357   F   F   F
  0.7948303416666676  0.3647107883333334  0.5179321366666656   F   F   F
  0.6523322108691971  0.0546809908066948  0.5575168880660257   T   T   T
  0.5142843417982519  0.2624851288370564  0.6105586240477905   T   T   T
  0.8173836948109283  0.4584787546598221  0.6536688840171507   T   T   T
  0.8781636750000033  0.0313774549999977  0.3512654700000013   F   F   F
  0.7510113425000000  0.2269725800000018  0.3903844949999993   F   F   F
  0.6073720958333340  0.4396940866666696  0.4429488383333364   F   F   F
  0.9301195533333342  0.1352892116666666  0.4820678633333344   F   F   F
  0.9327927379130330  0.9005734531243021  0.5913948489108236   T   T   T
  0.5416666666666643  0.5833333333333357  0.4166666666666643   F   F   F
  0.6041666666666643  0.7083333333333357  0.5416666666666643   F   F   F
  0.7776949561383759  0.5941593988951794  0.6193950587140407   T   T   T
  0.6875000000000000  0.8750000000000000  0.3750000000000000   F   F   F
  0.8958333333333357  0.7916666666666643  0.4583333333333357   F   F   F
  0.7948303416666676  0.8647107883333334  0.5179321366666656   F   F   F
  0.6562423412190910  0.5524104328891752  0.5466893788992166   T   T   T
  0.5375400085555100  0.7812603971552647  0.6107385971045360   T   T   T
  0.8484489884768465  0.9709121949224553  0.6558674679252761   T   T   T
  0.8781636750000033  0.5313774549999977  0.3512654700000013   F   F   F
  0.7510113425000000  0.7269725800000018  0.3903844949999993   F   F   F
  0.6073720958333340  0.9396940866666696  0.4429488383333364   F   F   F
  0.9301195533333342  0.6352892116666666  0.4820678633333344   F   F   F
  0.6217789997924115  0.6098287329558616  0.6545799665417462   T   T   T
 
  0.00000000E+00  0.00000000E+00  0.00000000E+00
  0.00000000E+00  0.00000000E+00  0.00000000E+00
  0.00000000E+00  0.00000000E+00  0.00000000E+00
  0.00000000E+00  0.00000000E+00  0.00000000E+00
  0.00000000E+00  0.00000000E+00  0.00000000E+00
  0.00000000E+00  0.00000000E+00  0.00000000E+00
  0.00000000E+00  0.00000000E+00  0.00000000E+00
  0.00000000E+00  0.00000000E+00  0.00000000E+00
  0.00000000E+00  0.00000000E+00  0.00000000E+00
  0.00000000E+00  0.00000000E+00  0.00000000E+00
  0.00000000E+00  0.00000000E+00  0.00000000E+00
  0.00000000E+00  0.00000000E+00  0.00000000E+00
  0.00000000E+00  0.00000000E+00  0.00000000E+00
  0.00000000E+00  0.00000000E+00  0.00000000E+00
  0.00000000E+00  0.00000000E+00  0.00000000E+00
  0.00000000E+00  0.00000000E+00  0.00000000E+00
  0.00000000E+00  0.00000000E+00  0.00000000E+00
  0.00000000E+00  0.00000000E+00  0.00000000E+00
  0.00000000E+00  0.00000000E+00  0.00000000E+00
  0.00000000E+00  0.00000000E+00  0.00000000E+00
  0.00000000E+00  0.00000000E+00  0.00000000E+00
  0.00000000E+00  0.00000000E+00  0.00000000E+00
  0.00000000E+00  0.00000000E+00  0.00000000E+00
  0.00000000E+00  0.00000000E+00  0.00000000E+00
  0.00000000E+00  0.00000000E+00  0.00000000E+00
  0.00000000E+00  0.00000000E+00  0.00000000E+00
  0.00000000E+00  0.00000000E+00  0.00000000E+00
  0.00000000E+00  0.00000000E+00  0.00000000E+00
  0.00000000E+00  0.00000000E+00  0.00000000E+00
  0.00000000E+00  0.00000000E+00  0.00000000E+00
  0.00000000E+00  0.00000000E+00  0.00000000E+00
  0.00000000E+00  0.00000000E+00  0.00000000E+00
  0.00000000E+00  0.00000000E+00  0.00000000E+00
  0.00000000E+00  0.00000000E+00  0.00000000E+00
  0.00000000E+00  0.00000000E+00  0.00000000E+00
  0.00000000E+00  0.00000000E+00  0.00000000E+00
  0.00000000E+00  0.00000000E+00  0.00000000E+00
  0.00000000E+00  0.00000000E+00  0.00000000E+00
  0.00000000E+00  0.00000000E+00  0.00000000E+00
  0.00000000E+00  0.00000000E+00  0.00000000E+00
  0.00000000E+00  0.00000000E+00  0.00000000E+00
  0.00000000E+00  0.00000000E+00  0.00000000E+00
  0.00000000E+00  0.00000000E+00  0.00000000E+00
  0.00000000E+00  0.00000000E+00  0.00000000E+00
  0.00000000E+00  0.00000000E+00  0.00000000E+00
  0.00000000E+00  0.00000000E+00  0.00000000E+00
  0.00000000E+00  0.00000000E+00  0.00000000E+00
  0.00000000E+00  0.00000000E+00  0.00000000E+00
  0.00000000E+00  0.00000000E+00  0.00000000E+00
  0.00000000E+00  0.00000000E+00  0.00000000E+00
  0.00000000E+00  0.00000000E+00  0.00000000E+00
  0.00000000E+00  0.00000000E+00  0.00000000E+00
  0.00000000E+00  0.00000000E+00  0.00000000E+00
  0.00000000E+00  0.00000000E+00  0.00000000E+00
  0.00000000E+00  0.00000000E+00  0.00000000E+00
  0.00000000E+00  0.00000000E+00  0.00000000E+00
  0.00000000E+00  0.00000000E+00  0.00000000E+00
