Cd In Se O
 1.0000000000000000
    11.9454120828770254    0.0000000000000000    0.0000000000000007
    -5.9727060414385118   13.6834591530377256   -0.8092229449120690
     0.0000000000000000    0.0000000000000000   32.3117488716703605
Cd In Se O
8 16 32 1
Selective dynamics
Cartesian
  3.0987585100199833  5.5935177531572480 18.4068739953287412   T   T   T
  0.0000000000000001  1.1402882627531428 13.3957934511199799   F   F   F
  0.0000000000000002  2.8507206568828587 17.3336091919647650   F   F   F
  3.2698536479518268  1.2965913409119498 19.6671754035710471   T   T   T
  0.0000000000000004  5.1312971823891473 11.8134472225343625   F   F   F
  2.9863530207192563  3.9910089196360028 14.5735282072495611   F   F   F
  1.3435595968874599  4.9905051748313536 16.4401607943646866   F   F   F
  1.3726392309117801  0.6849615770371933 17.9865441940564992   T   T   T
 -1.3962235300075885  3.6942914351005798 19.4931470146822967   T   T   T
  2.4944771440662392  7.1241279839636116 20.7080483022274677   T   T   T
  4.3299126176067153  0.4293521238187778 11.3246102973903131   F   F   F
  1.6427934238317976  3.1057700272895858 12.4303343462319660   F   F   F
 -1.3435595968874585  6.0165360747355638 13.9566410835519576   F   F   F
  4.3299126176067171  1.8512244016875017 15.4669766048496431   F   F   F
 -0.1621005051847528 12.4677367035740989 18.2824155784634499   T   T   T
 -2.9863530207192559  7.9820178392720056 12.9911819786639455   F   F   F
 -2.9863530207192559  9.6924502334017220 16.9289977195087289   F   F   F
  0.5223448032375027  8.3932294413096518 19.3155312312165108   T   T   T
 -2.9863530207192555 11.9730267589080093 11.4088357500783282   F   F   F
  0.0000000000000004 10.8327384961548656 14.1689167347935268   F   F   F
 -1.6427934238317961 11.8322347513502173 16.0355493219086505   F   F   F
 -1.4869348420796047  7.6158142523266985 17.8521906619899191   T   T   T
 -4.5630117448591587 10.2919586122505571 19.1051228800263075   T   T   T
 -1.6721423826275035 13.2030661944880574 20.3073351317299746   T   T   T
  1.3435595968874594  7.2710817003376409 10.9199988249342788   F   F   F
 -1.3435595968874583  9.9474996038084491 12.0257228737759316   F   F   F
 -4.3299126176067144 12.8582656512544276 13.5520296110959233   F   F   F
  1.3435595968874612  8.6929539782063650 15.0623651323936087   F   F   F
  8.6314658355962930  5.5982387668917726 18.8303456175877990   T   T   T
  5.9727060414385127  1.1402882627531428 13.3957934511199799   F   F   F
  5.9727060414385127  2.8507206568828587 17.3336091919647650   F   F   F
  9.3224008167493722  1.3664958436614729 19.7312331234679839   T   T   T
  5.9727060414385136  5.1312971823891473 11.8134472225343625   F   F   F
  8.9590590621577686  3.9910089196360028 14.5735282072495611   F   F   F
  7.3162656383259730  4.9905051748313536 16.4401607943646866   F   F   F
  7.4657835896238032  0.7482251041509975 17.9700965664933605   T   T   T
  4.5755918757584482  3.5917045387217272 19.5158079427116782   T   T   T
  7.0256262365132045  6.2735753119233175 20.7501732975617017   T   T   T
 10.3026186590452280  0.4293521238187778 11.3246102973903131   F   F   F
  7.6154994652703101  3.1057700272895858 12.4303343462319660   F   F   F
  4.6291464445510542  6.0165360747355638 13.9566410835519576   F   F   F
 10.3026186590452298  1.8512244016875017 15.4669766048496431   F   F   F
  5.7637331380516201 12.3229600601365181 18.3802371401590356   T   T   T
  2.9863530207192568  7.9820178392720056 12.9911819786639455   F   F   F
  2.9863530207192568  9.6924502334017220 16.9289977195087324   F   F   F
  5.7411472944892097  8.1301558651756043 19.5329301710003485   T   T   T
  2.9863530207192572 11.9730267589080093 11.4088357500783282   F   F   F
  5.9727060414385136 10.8327384961548656 14.1689167347935268   F   F   F
  4.3299126176067162 11.8322347513502173 16.0355493219086540   F   F   F
  4.5397000622231758  7.5588855941508779 17.2174667244981237   T   T   T
  1.7548982192029219 10.6903447323600922 19.1018183365488134   T   T   T
  4.3360996663364890 13.2854373604075970 20.4065404910735353   T   T   T
  7.3162656383259721  7.2710817003376409 10.9199988249342788   F   F   F
  4.6291464445510542  9.9474996038084491 12.0257228737759316   F   F   F
  1.6427934238317983 12.8582656512544276 13.5520296110959233   F   F   F
  7.3162656383259739  8.6929539782063650 15.0623651323936087   F   F   F
  3.7850786194311921  8.3445665577502641 20.6571360921486971   T   T   T
