Cu Se Sn                                
   1.00000000000000     
    11.4133142365150313    0.0000000000000000    0.0000000000000007
    -5.7066571182575156   12.1679727199262935   -1.4790248148397627
     0.0000000000000000    0.0000000000000000   30.5258828813255150
   Cu   Se   Sn
    16    32     8
Selective dynamics
Direct
  0.1041666666666643  0.2083333333333357  0.5416666666666643   F   F   F
  0.2749276287478324  0.1091147278391347  0.6157719281290284   T   T   T
  0.1875000000000000  0.3750000000000000  0.3750000000000000   F   F   F
  0.3958333333333357  0.2916666666666643  0.4583333333333357   F   F   F
  0.1324397063884604  0.4719843533918251  0.6531564396202540   T   T   T
  0.2527266472764111  0.2719346712416382  0.6073600605835452   T   T   T
  0.0676840825000014  0.3563301949999982  0.5154584450000002   F   F   F
  0.4030865702841666  0.0704220730900076  0.5609097839060126   T   T   T
  0.2113538875000032  0.1436698050000018  0.4845415549999998   F   F   F
  0.3254731175000032  0.4299842049999967  0.4418044350000017   F   F   F
  0.1510174158333299  0.0229968616666696  0.3487917783333359   F   F   F
  0.4788222458333351  0.2366824616666676  0.3915288983333340   F   F   F
  0.4726395437559319  0.4212893752755420  0.5861521214914376   T   T   T
  0.0416666666666643  0.0833333333333357  0.4166666666666643   F   F   F
  0.1041666666666643  0.7083333333333357  0.5416666666666643   F   F   F
  0.2748413426203484  0.6091394255394533  0.6157763166214707   T   T   T
  0.1875000000000000  0.8750000000000000  0.3750000000000000   F   F   F
  0.3958333333333357  0.7916666666666643  0.4583333333333357   F   F   F
  0.1323762380214788  0.9721376861063078  0.6531988991710662   T   T   T
  0.2527460885238000  0.7719428584224701  0.6073298780728109   T   T   T
  0.0676840825000014  0.8563301949999982  0.5154584450000002   F   F   F
  0.4031031596011232  0.5705195735085411  0.5609219337946385   T   T   T
  0.2113538875000032  0.6436698050000018  0.4845415549999998   F   F   F
  0.3254731175000032  0.9299842049999967  0.4418044350000017   F   F   F
  0.1510174158333299  0.5229968616666696  0.3487917783333359   F   F   F
  0.4788222458333351  0.7366824616666676  0.3915288983333340   F   F   F
  0.4726944469319960  0.9213064278742209  0.5861671458360860   T   T   T
  0.0416666666666643  0.5833333333333357  0.4166666666666643   F   F   F
  0.6041666666666643  0.2083333333333357  0.5416666666666643   F   F   F
  0.7749061195764497  0.1091490015726322  0.6156849791186190   T   T   T
  0.6875000000000000  0.3750000000000000  0.3750000000000000   F   F   F
  0.8958333333333357  0.2916666666666643  0.4583333333333357   F   F   F
  0.6325929108817050  0.4720558210214492  0.6531447099638186   T   T   T
  0.7525417392818596  0.2719494419111967  0.6073221255545107   T   T   T
  0.5676840825000014  0.3563301949999982  0.5154584450000002   F   F   F
  0.9030070306475011  0.0704486571738698  0.5608092100732378   T   T   T
  0.7113538875000032  0.1436698050000018  0.4845415549999998   F   F   F
  0.8254731175000032  0.4299842049999967  0.4418044350000017   F   F   F
  0.6510174158333299  0.0229968616666696  0.3487917783333359   F   F   F
  0.9788222458333351  0.2366824616666676  0.3915288983333340   F   F   F
  0.9725545982194248  0.4213073569266328  0.5861289881667275   T   T   T
  0.5416666666666643  0.0833333333333357  0.4166666666666643   F   F   F
  0.6041666666666643  0.7083333333333357  0.5416666666666643   F   F   F
  0.7748267490142524  0.6091542353753781  0.6156862874365672   T   T   T
  0.6875000000000000  0.8750000000000000  0.3750000000000000   F   F   F
  0.8958333333333357  0.7916666666666643  0.4583333333333357   F   F   F
  0.6325473093238969  0.9721972728095878  0.6531843286365913   T   T   T
  0.7525605131335382  0.7719440520672762  0.6072951889560869   T   T   T
  0.5676840825000014  0.8563301949999982  0.5154584450000002   F   F   F
  0.9030235356328831  0.5705428618058335  0.5608131260954110   T   T   T
  0.7113538875000032  0.6436698050000018  0.4845415549999998   F   F   F
  0.8254731175000032  0.9299842049999967  0.4418044350000017   F   F   F
  0.6510174158333299  0.5229968616666696  0.3487917783333359   F   F   F
  0.9788222458333351  0.7366824616666676  0.3915288983333340   F   F   F
  0.9725991469278270  0.9213131648221378  0.5861419451232379   T   T   T
  0.5416666666666643  0.5833333333333357  0.4166666666666643   F   F   F
 
  0.00000000E+00  0.00000000E+00  0.00000000E+00
  0.00000000E+00  0.00000000E+00  0.00000000E+00
  0.00000000E+00  0.00000000E+00  0.00000000E+00
  0.00000000E+00  0.00000000E+00  0.00000000E+00
  0.00000000E+00  0.00000000E+00  0.00000000E+00
  0.00000000E+00  0.00000000E+00  0.00000000E+00
  0.00000000E+00  0.00000000E+00  0.00000000E+00
  0.00000000E+00  0.00000000E+00  0.00000000E+00
  0.00000000E+00  0.00000000E+00  0.00000000E+00
  0.00000000E+00  0.00000000E+00  0.00000000E+00
  0.00000000E+00  0.00000000E+00  0.00000000E+00
  0.00000000E+00  0.00000000E+00  0.00000000E+00
  0.00000000E+00  0.00000000E+00  0.00000000E+00
  0.00000000E+00  0.00000000E+00  0.00000000E+00
  0.00000000E+00  0.00000000E+00  0.00000000E+00
  0.00000000E+00  0.00000000E+00  0.00000000E+00
  0.00000000E+00  0.00000000E+00  0.00000000E+00
  0.00000000E+00  0.00000000E+00  0.00000000E+00
  0.00000000E+00  0.00000000E+00  0.00000000E+00
  0.00000000E+00  0.00000000E+00  0.00000000E+00
  0.00000000E+00  0.00000000E+00  0.00000000E+00
  0.00000000E+00  0.00000000E+00  0.00000000E+00
  0.00000000E+00  0.00000000E+00  0.00000000E+00
  0.00000000E+00  0.00000000E+00  0.00000000E+00
  0.00000000E+00  0.00000000E+00  0.00000000E+00
  0.00000000E+00  0.00000000E+00  0.00000000E+00
  0.00000000E+00  0.00000000E+00  0.00000000E+00
  0.00000000E+00  0.00000000E+00  0.00000000E+00
  0.00000000E+00  0.00000000E+00  0.00000000E+00
  0.00000000E+00  0.00000000E+00  0.00000000E+00
  0.00000000E+00  0.00000000E+00  0.00000000E+00
  0.00000000E+00  0.00000000E+00  0.00000000E+00
  0.00000000E+00  0.00000000E+00  0.00000000E+00
  0.00000000E+00  0.00000000E+00  0.00000000E+00
  0.00000000E+00  0.00000000E+00  0.00000000E+00
  0.00000000E+00  0.00000000E+00  0.00000000E+00
  0.00000000E+00  0.00000000E+00  0.00000000E+00
  0.00000000E+00  0.00000000E+00  0.00000000E+00
  0.00000000E+00  0.00000000E+00  0.00000000E+00
  0.00000000E+00  0.00000000E+00  0.00000000E+00
  0.00000000E+00  0.00000000E+00  0.00000000E+00
  0.00000000E+00  0.00000000E+00  0.00000000E+00
  0.00000000E+00  0.00000000E+00  0.00000000E+00
  0.00000000E+00  0.00000000E+00  0.00000000E+00
  0.00000000E+00  0.00000000E+00  0.00000000E+00
  0.00000000E+00  0.00000000E+00  0.00000000E+00
  0.00000000E+00  0.00000000E+00  0.00000000E+00
  0.00000000E+00  0.00000000E+00  0.00000000E+00
  0.00000000E+00  0.00000000E+00  0.00000000E+00
  0.00000000E+00  0.00000000E+00  0.00000000E+00
  0.00000000E+00  0.00000000E+00  0.00000000E+00
  0.00000000E+00  0.00000000E+00  0.00000000E+00
  0.00000000E+00  0.00000000E+00  0.00000000E+00
  0.00000000E+00  0.00000000E+00  0.00000000E+00
  0.00000000E+00  0.00000000E+00  0.00000000E+00
  0.00000000E+00  0.00000000E+00  0.00000000E+00
