Cu Se Sn
 1.0000000000000000
    11.4133142365150313    0.0000000000000000    0.0000000000000007
    -5.7066571182575156   12.1679727199262935   -1.4790248148397627
     0.0000000000000000    0.0000000000000000   30.5258828813255150
Cu Se Sn
16 32 8
Selective dynamics
Cartesian
  0.0000000000000000  2.5349943166513076 16.2267230576263657   F   F   F
  2.5151550808690528  1.3277050316887791 18.6355983695360869   T   T   T
  0.0000000000000000  4.5629897699723596 10.8925717749321578   F   F   F
  2.8533285591287574  3.5489920433118338 13.5596474162792617   F   F   F
 -1.1818768835863149  5.7430927363037680 19.2401004081488054   T   T   T
  1.3326107139644736  3.3088936612703592 18.1380039493863663   T   T   T
 -1.2609545413641314  4.3358160920460165 15.2078029215784767   F   F   F
  4.1986790664907163  0.8568938642398715 17.0181103768920323   T   T   T
  1.5923740177646266  1.7481702679171320 14.5785675523271543   F   F   F
  1.2609545413641317  5.2320360764391953 12.8505131300760400   F   F   F
  1.5923740177646266  0.2798251854039178 10.6131640463041457   F   F   F
  4.1142831004928890  2.8799457368450017 11.6017060611353795   F   F   F
  2.9902296212270896  5.1262376255475663 17.2697135710271752   T   T   T
  0.0000000000000000  1.0139977266605262 12.5958657993156464   F   F   F
 -2.8533285591287578  8.6189806766144539 15.4872106502064852   F   F   F
 -0.3392992302542552  7.4119919125956368 17.8961833962108479   T   T   T
 -2.8533285591287578 10.6469761299355063 10.1530593675122773   F   F   F
 -0.0000000000000004  9.6329784032749810 12.8201350088593813   F   F   F
 -4.0368048443581070 11.8289448445538596 18.5016573331145935   T   T   T
 -1.5205426775324606  9.3929796426265248 17.3975580851352234   T   T   T
 -4.1142831004928890 10.4198024520091632 14.4682905141585962   F   F   F
  1.3449834449918985  6.9420666066359518 16.2788246500107689   T   T   T
 -1.2609545413641312  7.8321566278802788 13.8390551449072738   F   F   F
 -1.5923740177646262 11.3160224364023421 12.1110007226561578   F   F   F
 -1.2609545413641312  6.3638115453670645  9.8736516388842652   F   F   F
  1.2609545413641312  8.9639320968081488 10.8621936537154973   F   F   F
  0.1374303759657778 11.2104314810662267 16.5306345737759202   T   T   T
 -2.8533285591287578  7.0979840866236730 11.8563533918957660   F   F   F
  5.7066571182575156  2.5349943166513076 16.2267230576263657   F   F   F
  8.2213711197493708  1.3281220735430135 18.6328934825254642   T   T   T
  5.7066571182575156  4.5629897699723596 10.8925717749321578   F   F   F
  8.5599856773862726  3.5489920433118338 13.5596474162792617   F   F   F
  4.5261209644377258  5.7439623524713879 19.2396366476326648   T   T   T
  7.0370731280287462  3.3090733903746341 18.1368241029461572   T   T   T
  4.4457025768933844  4.3358160920460165 15.2078029215784767   F   F   F
  9.9042766676293859  0.8572173386470675 17.0150009533319420   T   T   T
  7.2990311360221423  1.7481702679171320 14.5785675523271543   F   F   F
  6.9676116596216477  5.2320360764391953 12.8505131300760400   F   F   F
  7.2990311360221423  0.2798251854039178 10.6131640463041457   F   F   F
  9.8209402187504047  2.8799457368450017 11.6017060611353795   F   F   F
  8.6958146142662613  5.1264564257875298 17.2689808105582117   T   T   T
  5.7066571182575156  1.0139977266605262 12.5958657993156464   F   F   F
  2.8533285591287578  8.6189806766144539 15.4872106502064852   F   F   F
  5.3671068119354626  7.4121721182751354 17.8934132717418954   T   T   T
  2.8533285591287578 10.6469761299355063 10.1530593675122773   F   F   F
  5.7066571182575156  9.6329784032749810 12.8201350088593813   F   F   F
  1.6714647235463362 11.8296698939338398 18.5011244244729767   T   T   T
  4.1839895987597853  9.3929941668640105 17.3964974037903986   T   T   T
  1.5923740177646264 10.4198024520091632 14.4682905141585962   F   F   F
  7.0505988915516653  6.9423499780020466 16.2754687549581050   T   T   T
  4.4457025768933844  7.8321566278802788 13.8390551449072738   F   F   F
  4.1142831004928890 11.3160224364023421 12.1110007226561596   F   F   F
  4.4457025768933844  6.3638115453670645  9.8736516388842652   F   F   F
  6.9676116596216469  8.9639320968081488 10.8621936537154991   F   F   F
  5.8429613598771706 11.2105134560646924 16.5298553356538704   T   T   T
  2.8533285591287578  7.0979840866236730 11.8563533918957660   F   F   F
