Nb Pd H O                               
   1.00000000000000     
     8.5272877203063207    0.0000000000000000   -0.0000000000000005
     1.3410569222288782    8.4211758202895268   -0.0000000000000005
     0.0000000000000000    0.0000000000000048   39.4404615568839816
   Nb   Pd   H    O 
    36    18     1     1
Selective dynamics
Direct
  0.2500000000000000  0.0833333333333357  0.5850606366666682   F   F   F
  0.0833333333333357  0.2500000000000000  0.5272020100000034   F   F   F
  0.0833333333333357  0.2500000000000000  0.4183939699999968   F   F   F
  0.2500000000000000  0.0833333333333357  0.3605353433333320   F   F   F
  0.0830192822137903  0.2491924143883963  0.6361232746614007   T   T   T
  0.2500000000000000  0.0833333333333357  0.4727979899999966   F   F   F
  0.2500000000000000  0.4166666666666643  0.5850606366666682   F   F   F
  0.0833333333333357  0.5833333333333357  0.5272020100000034   F   F   F
  0.0833333333333357  0.5833333333333357  0.4183939699999968   F   F   F
  0.2500000000000000  0.4166666666666643  0.3605353433333320   F   F   F
  0.0820066695215544  0.5817439796167534  0.6360621522550645   T   T   T
  0.2500000000000000  0.4166666666666643  0.4727979899999966   F   F   F
  0.2500000000000000  0.7500000000000000  0.5850606366666682   F   F   F
  0.0833333333333357  0.9166666666666643  0.5272020100000034   F   F   F
  0.0833333333333357  0.9166666666666643  0.4183939699999968   F   F   F
  0.2500000000000000  0.7500000000000000  0.3605353433333320   F   F   F
  0.0845137411428354  0.9153761021276026  0.6373059974803468   T   T   T
  0.2500000000000000  0.7500000000000000  0.4727979899999966   F   F   F
  0.5833333333333357  0.0833333333333357  0.5850606366666682   F   F   F
  0.4166666666666643  0.2500000000000000  0.5272020100000034   F   F   F
  0.4166666666666643  0.2500000000000000  0.4183939699999968   F   F   F
  0.5833333333333357  0.0833333333333357  0.3605353433333320   F   F   F
  0.4164315352726504  0.2499979183626948  0.6360963490106215   T   T   T
  0.5833333333333357  0.0833333333333357  0.4727979899999966   F   F   F
  0.5833333333333357  0.4166666666666643  0.5850606366666682   F   F   F
  0.4166666666666643  0.5833333333333357  0.5272020100000034   F   F   F
  0.4166666666666643  0.5833333333333357  0.4183939699999968   F   F   F
  0.5833333333333357  0.4166666666666643  0.3605353433333320   F   F   F
  0.4155400998013121  0.5841025229466084  0.6373102593626783   T   T   T
  0.5833333333333357  0.4166666666666643  0.4727979899999966   F   F   F
  0.5833333333333357  0.7500000000000000  0.5850606366666682   F   F   F
  0.4166666666666643  0.9166666666666643  0.5272020100000034   F   F   F
  0.4166666666666643  0.9166666666666643  0.4183939699999968   F   F   F
  0.5833333333333357  0.7500000000000000  0.3605353433333320   F   F   F
  0.4166823624059219  0.9162375548043826  0.6370944817625812   T   T   T
  0.5833333333333357  0.7500000000000000  0.4727979899999966   F   F   F
  0.9166666666666643  0.0833333333333357  0.5850606366666682   F   F   F
  0.7500000000000000  0.2500000000000000  0.5272020100000034   F   F   F
  0.7500000000000000  0.2500000000000000  0.4183939699999968   F   F   F
  0.9166666666666643  0.0833333333333357  0.3605353433333320   F   F   F
  0.7499679696889388  0.2498264022117667  0.6362368078446821   T   T   T
  0.9166666666666643  0.0833333333333357  0.4727979899999966   F   F   F
  0.9166666666666643  0.4166666666666643  0.5850606366666682   F   F   F
  0.7500000000000000  0.5833333333333357  0.5272020100000034   F   F   F
  0.7500000000000000  0.5833333333333357  0.4183939699999968   F   F   F
  0.9166666666666643  0.4166666666666643  0.3605353433333320   F   F   F
  0.7493714518709140  0.5829879039993671  0.6361590422128813   T   T   T
  0.9166666666666643  0.4166666666666643  0.4727979899999966   F   F   F
  0.9166666666666643  0.7500000000000000  0.5850606366666682   F   F   F
  0.7500000000000000  0.9166666666666643  0.5272020100000034   F   F   F
  0.7500000000000000  0.9166666666666643  0.4183939699999968   F   F   F
  0.9166666666666643  0.7500000000000000  0.3605353433333320   F   F   F
  0.7502324684943247  0.9164451056280640  0.6361428675174423   T   T   T
  0.9166666666666643  0.7500000000000000  0.4727979899999966   F   F   F
  0.3097333931218245  0.8047776993387998  0.6993220155624300   T   T   T
  0.2869610957832478  0.7869530607933655  0.6754578792871371   T   T   T
 
  0.00000000E+00  0.00000000E+00  0.00000000E+00
  0.00000000E+00  0.00000000E+00  0.00000000E+00
  0.00000000E+00  0.00000000E+00  0.00000000E+00
  0.00000000E+00  0.00000000E+00  0.00000000E+00
  0.00000000E+00  0.00000000E+00  0.00000000E+00
  0.00000000E+00  0.00000000E+00  0.00000000E+00
  0.00000000E+00  0.00000000E+00  0.00000000E+00
  0.00000000E+00  0.00000000E+00  0.00000000E+00
  0.00000000E+00  0.00000000E+00  0.00000000E+00
  0.00000000E+00  0.00000000E+00  0.00000000E+00
  0.00000000E+00  0.00000000E+00  0.00000000E+00
  0.00000000E+00  0.00000000E+00  0.00000000E+00
  0.00000000E+00  0.00000000E+00  0.00000000E+00
  0.00000000E+00  0.00000000E+00  0.00000000E+00
  0.00000000E+00  0.00000000E+00  0.00000000E+00
  0.00000000E+00  0.00000000E+00  0.00000000E+00
  0.00000000E+00  0.00000000E+00  0.00000000E+00
  0.00000000E+00  0.00000000E+00  0.00000000E+00
  0.00000000E+00  0.00000000E+00  0.00000000E+00
  0.00000000E+00  0.00000000E+00  0.00000000E+00
  0.00000000E+00  0.00000000E+00  0.00000000E+00
  0.00000000E+00  0.00000000E+00  0.00000000E+00
  0.00000000E+00  0.00000000E+00  0.00000000E+00
  0.00000000E+00  0.00000000E+00  0.00000000E+00
  0.00000000E+00  0.00000000E+00  0.00000000E+00
  0.00000000E+00  0.00000000E+00  0.00000000E+00
  0.00000000E+00  0.00000000E+00  0.00000000E+00
  0.00000000E+00  0.00000000E+00  0.00000000E+00
  0.00000000E+00  0.00000000E+00  0.00000000E+00
  0.00000000E+00  0.00000000E+00  0.00000000E+00
  0.00000000E+00  0.00000000E+00  0.00000000E+00
  0.00000000E+00  0.00000000E+00  0.00000000E+00
  0.00000000E+00  0.00000000E+00  0.00000000E+00
  0.00000000E+00  0.00000000E+00  0.00000000E+00
  0.00000000E+00  0.00000000E+00  0.00000000E+00
  0.00000000E+00  0.00000000E+00  0.00000000E+00
  0.00000000E+00  0.00000000E+00  0.00000000E+00
  0.00000000E+00  0.00000000E+00  0.00000000E+00
  0.00000000E+00  0.00000000E+00  0.00000000E+00
  0.00000000E+00  0.00000000E+00  0.00000000E+00
  0.00000000E+00  0.00000000E+00  0.00000000E+00
  0.00000000E+00  0.00000000E+00  0.00000000E+00
  0.00000000E+00  0.00000000E+00  0.00000000E+00
  0.00000000E+00  0.00000000E+00  0.00000000E+00
  0.00000000E+00  0.00000000E+00  0.00000000E+00
  0.00000000E+00  0.00000000E+00  0.00000000E+00
  0.00000000E+00  0.00000000E+00  0.00000000E+00
  0.00000000E+00  0.00000000E+00  0.00000000E+00
  0.00000000E+00  0.00000000E+00  0.00000000E+00
  0.00000000E+00  0.00000000E+00  0.00000000E+00
  0.00000000E+00  0.00000000E+00  0.00000000E+00
  0.00000000E+00  0.00000000E+00  0.00000000E+00
  0.00000000E+00  0.00000000E+00  0.00000000E+00
  0.00000000E+00  0.00000000E+00  0.00000000E+00
  0.00000000E+00  0.00000000E+00  0.00000000E+00
  0.00000000E+00  0.00000000E+00  0.00000000E+00
