Cu Se                                   
   1.00000000000000     
    12.9865198799999995    0.0000000000000000    0.0000000000000008
    -0.0000000000000008   12.9865198799999995    0.0000000000000008
     0.0000000000000000    0.0000000000000000   30.9134276499999991
   Cu   Se
    48    32
Selective dynamics
Direct
  0.0000000000000000  0.0000000000000000  0.4285714285714306   F   F   F
  0.2500000000000000  0.2500000000000000  0.4285714285714306   F   F   F
  0.4270953549999987  0.1770953549999987  0.3935643642857158   F   F   F
  0.3229046450000013  0.4270953549999987  0.4635784928571454   F   F   F
  0.1770953549999987  0.0729046450000013  0.4635784928571454   F   F   F
  0.0729046450000013  0.3229046450000013  0.3935643642857158   F   F   F
  0.3645392049999998  0.1145392049999998  0.4659550814285751   F   F   F
  0.3854607950000002  0.3645392049999998  0.3911877757142861   F   F   F
  0.1145392049999998  0.1354607950000002  0.3911877757142861   F   F   F
  0.1354607950000002  0.3854607950000002  0.4659550814285751   F   F   F
  0.0001729473061189  0.9998645461312634  0.5751664428290511   T   T   T
  0.2499837572252233  0.2499920764864711  0.5750731481132902   T   T   T
  0.4270953549999987  0.1770953549999987  0.5364215071428546   F   F   F
  0.3156003898822419  0.4342314447069242  0.5990775097402263   T   T   T
  0.1843804771210458  0.0657547433913024  0.5990954136242976   T   T   T
  0.0729046450000013  0.3229046450000013  0.5364215071428546   F   F   F
  0.3664107939286012  0.1165593026706730  0.6112436833493433   T   T   T
  0.3854607950000002  0.3645392049999998  0.5340449185714320   F   F   F
  0.1145392049999998  0.1354607950000002  0.5340449185714320   F   F   F
  0.1335580957165519  0.3834739139083325  0.6112474825046803   T   T   T
  0.0000000000000000  0.5000000000000000  0.4285714285714306   F   F   F
  0.2500000000000000  0.7500000000000000  0.4285714285714306   F   F   F
  0.4270953549999987  0.6770953549999987  0.3935643642857158   F   F   F
  0.3229046450000013  0.9270953549999987  0.4635784928571454   F   F   F
  0.1770953549999987  0.5729046450000013  0.4635784928571454   F   F   F
  0.0729046450000013  0.8229046450000013  0.3935643642857158   F   F   F
  0.3645392049999998  0.6145392049999998  0.4659550814285751   F   F   F
  0.3854607950000002  0.8645392049999998  0.3911877757142861   F   F   F
  0.1145392049999998  0.6354607950000002  0.3911877757142861   F   F   F
  0.1354607950000002  0.8854607950000002  0.4659550814285751   F   F   F
  0.0000242655852745  0.4999100748487919  0.5751373419958838   T   T   T
  0.2500098084716029  0.7499837585494902  0.5750615977928675   T   T   T
  0.4270953549999987  0.6770953549999987  0.5364215071428546   F   F   F
  0.3156128335060444  0.9341596434966135  0.5991073638713686   T   T   T
  0.1843951952349059  0.5658492303287233  0.5991163957205003   T   T   T
  0.0729046450000013  0.8229046450000013  0.5364215071428546   F   F   F
  0.3664201098949391  0.6165802577460298  0.6112771953882188   T   T   T
  0.3854607950000002  0.8645392049999998  0.5340449185714320   F   F   F
  0.1145392049999998  0.6354607950000002  0.5340449185714320   F   F   F
  0.1335588249707200  0.8833956997558943  0.6112643549874832   T   T   T
  0.5000000000000000  0.0000000000000000  0.4285714285714306   F   F   F
  0.7500000000000000  0.2500000000000000  0.4285714285714306   F   F   F
  0.9270953549999987  0.1770953549999987  0.3935643642857158   F   F   F
  0.8229046450000013  0.4270953549999987  0.4635784928571454   F   F   F
  0.6770953549999987  0.0729046450000013  0.4635784928571454   F   F   F
  0.5729046450000013  0.3229046450000013  0.3935643642857158   F   F   F
  0.8645392049999998  0.1145392049999998  0.4659550814285751   F   F   F
  0.8854607950000002  0.3645392049999998  0.3911877757142861   F   F   F
  0.6145392049999998  0.1354607950000002  0.3911877757142861   F   F   F
  0.6354607950000002  0.3854607950000002  0.4659550814285751   F   F   F
  0.4999798350597402  0.0000939207397508  0.5750930419222371   T   T   T
  0.7499898102775546  0.2500324104120608  0.5751071282788160   T   T   T
  0.9270953549999987  0.1770953549999987  0.5364215071428546   F   F   F
  0.8157308170291842  0.4343235598555566  0.5990791224945369   T   T   T
  0.6842692221180044  0.0656726720104004  0.5990731913989649   T   T   T
  0.5729046450000013  0.3229046450000013  0.5364215071428546   F   F   F
  0.8665844092107591  0.1164289671788694  0.6111739096133917   T   T   T
  0.8854607950000002  0.3645392049999998  0.5340449185714320   F   F   F
  0.6145392049999998  0.1354607950000002  0.5340449185714320   F   F   F
  0.6334547832354147  0.3835884808483740  0.6111825957000931   T   T   T
  0.5000000000000000  0.5000000000000000  0.4285714285714306   F   F   F
  0.7500000000000000  0.7500000000000000  0.4285714285714306   F   F   F
  0.9270953549999987  0.6770953549999987  0.3935643642857158   F   F   F
  0.8229046450000013  0.9270953549999987  0.4635784928571454   F   F   F
  0.6770953549999987  0.5729046450000013  0.4635784928571454   F   F   F
  0.5729046450000013  0.8229046450000013  0.3935643642857158   F   F   F
  0.8645392049999998  0.6145392049999998  0.4659550814285680   F   F   F
  0.8854607950000002  0.8645392049999998  0.3911877757142861   F   F   F
  0.6145392049999998  0.6354607950000002  0.3911877757142861   F   F   F
  0.6354607950000002  0.8854607950000002  0.4659550814285680   F   F   F
  0.4998399283923121  0.5001206449002282  0.5750780180799779   T   T   T
  0.7500405281500306  0.7500237543086641  0.5750784180885304   T   T   T
  0.9270953549999987  0.6770953549999987  0.5364215071428546   F   F   F
  0.8157319499847873  0.9342465632479957  0.5991151416219438   T   T   T
  0.6842977915497457  0.5657744193927456  0.5990939664355679   T   T   T
  0.5729046450000013  0.8229046450000013  0.5364215071428546   F   F   F
  0.8665959171575892  0.6164856256151623  0.6112153303014196   T   T   T
  0.8854607950000002  0.8645392049999998  0.5340449185714320   F   F   F
  0.6145392049999998  0.6354607950000002  0.5340449185714320   F   F   F
  0.6334653147968297  0.8834676719970247  0.6112047686841180   T   T   T
 
  0.00000000E+00  0.00000000E+00  0.00000000E+00
  0.00000000E+00  0.00000000E+00  0.00000000E+00
  0.00000000E+00  0.00000000E+00  0.00000000E+00
  0.00000000E+00  0.00000000E+00  0.00000000E+00
  0.00000000E+00  0.00000000E+00  0.00000000E+00
  0.00000000E+00  0.00000000E+00  0.00000000E+00
  0.00000000E+00  0.00000000E+00  0.00000000E+00
  0.00000000E+00  0.00000000E+00  0.00000000E+00
  0.00000000E+00  0.00000000E+00  0.00000000E+00
  0.00000000E+00  0.00000000E+00  0.00000000E+00
  0.00000000E+00  0.00000000E+00  0.00000000E+00
  0.00000000E+00  0.00000000E+00  0.00000000E+00
  0.00000000E+00  0.00000000E+00  0.00000000E+00
  0.00000000E+00  0.00000000E+00  0.00000000E+00
  0.00000000E+00  0.00000000E+00  0.00000000E+00
  0.00000000E+00  0.00000000E+00  0.00000000E+00
  0.00000000E+00  0.00000000E+00  0.00000000E+00
  0.00000000E+00  0.00000000E+00  0.00000000E+00
  0.00000000E+00  0.00000000E+00  0.00000000E+00
  0.00000000E+00  0.00000000E+00  0.00000000E+00
  0.00000000E+00  0.00000000E+00  0.00000000E+00
  0.00000000E+00  0.00000000E+00  0.00000000E+00
  0.00000000E+00  0.00000000E+00  0.00000000E+00
  0.00000000E+00  0.00000000E+00  0.00000000E+00
  0.00000000E+00  0.00000000E+00  0.00000000E+00
  0.00000000E+00  0.00000000E+00  0.00000000E+00
  0.00000000E+00  0.00000000E+00  0.00000000E+00
  0.00000000E+00  0.00000000E+00  0.00000000E+00
  0.00000000E+00  0.00000000E+00  0.00000000E+00
  0.00000000E+00  0.00000000E+00  0.00000000E+00
  0.00000000E+00  0.00000000E+00  0.00000000E+00
  0.00000000E+00  0.00000000E+00  0.00000000E+00
  0.00000000E+00  0.00000000E+00  0.00000000E+00
  0.00000000E+00  0.00000000E+00  0.00000000E+00
  0.00000000E+00  0.00000000E+00  0.00000000E+00
  0.00000000E+00  0.00000000E+00  0.00000000E+00
  0.00000000E+00  0.00000000E+00  0.00000000E+00
  0.00000000E+00  0.00000000E+00  0.00000000E+00
  0.00000000E+00  0.00000000E+00  0.00000000E+00
  0.00000000E+00  0.00000000E+00  0.00000000E+00
  0.00000000E+00  0.00000000E+00  0.00000000E+00
  0.00000000E+00  0.00000000E+00  0.00000000E+00
  0.00000000E+00  0.00000000E+00  0.00000000E+00
  0.00000000E+00  0.00000000E+00  0.00000000E+00
  0.00000000E+00  0.00000000E+00  0.00000000E+00
  0.00000000E+00  0.00000000E+00  0.00000000E+00
  0.00000000E+00  0.00000000E+00  0.00000000E+00
  0.00000000E+00  0.00000000E+00  0.00000000E+00
  0.00000000E+00  0.00000000E+00  0.00000000E+00
  0.00000000E+00  0.00000000E+00  0.00000000E+00
  0.00000000E+00  0.00000000E+00  0.00000000E+00
  0.00000000E+00  0.00000000E+00  0.00000000E+00
  0.00000000E+00  0.00000000E+00  0.00000000E+00
  0.00000000E+00  0.00000000E+00  0.00000000E+00
  0.00000000E+00  0.00000000E+00  0.00000000E+00
  0.00000000E+00  0.00000000E+00  0.00000000E+00
  0.00000000E+00  0.00000000E+00  0.00000000E+00
  0.00000000E+00  0.00000000E+00  0.00000000E+00
  0.00000000E+00  0.00000000E+00  0.00000000E+00
  0.00000000E+00  0.00000000E+00  0.00000000E+00
  0.00000000E+00  0.00000000E+00  0.00000000E+00
  0.00000000E+00  0.00000000E+00  0.00000000E+00
  0.00000000E+00  0.00000000E+00  0.00000000E+00
  0.00000000E+00  0.00000000E+00  0.00000000E+00
  0.00000000E+00  0.00000000E+00  0.00000000E+00
  0.00000000E+00  0.00000000E+00  0.00000000E+00
  0.00000000E+00  0.00000000E+00  0.00000000E+00
  0.00000000E+00  0.00000000E+00  0.00000000E+00
  0.00000000E+00  0.00000000E+00  0.00000000E+00
  0.00000000E+00  0.00000000E+00  0.00000000E+00
  0.00000000E+00  0.00000000E+00  0.00000000E+00
  0.00000000E+00  0.00000000E+00  0.00000000E+00
  0.00000000E+00  0.00000000E+00  0.00000000E+00
  0.00000000E+00  0.00000000E+00  0.00000000E+00
  0.00000000E+00  0.00000000E+00  0.00000000E+00
  0.00000000E+00  0.00000000E+00  0.00000000E+00
  0.00000000E+00  0.00000000E+00  0.00000000E+00
  0.00000000E+00  0.00000000E+00  0.00000000E+00
  0.00000000E+00  0.00000000E+00  0.00000000E+00
  0.00000000E+00  0.00000000E+00  0.00000000E+00
