Ge S H O                                
   1.00000000000000     
    11.7976550077561910    0.0000000000000000    0.0000000000000007
    -0.0000000000000007   11.8000578300000001    0.0000000000000007
     0.0000000000000000    0.0000000000000000   33.9527842490291931
   Ge   S    H    O 
    36    36     1     1
Selective dynamics
Direct
  0.1666666666666643  0.0833333333333357  0.5465310933333356   F   F   F
  0.0162775155330692  0.2438954928356765  0.6194930936390364   T   T   T
  0.0000000000000000  0.0833333333333357  0.3798644266666642   F   F   F
  0.1666666666666643  0.2500000000000000  0.4534689066666644   F   F   F
  0.1629947638223612  0.0833233483833880  0.6173624140697314   T   T   T
  0.0000000000000000  0.2500000000000000  0.5491759933333356   F   F   F
  0.0000000000000000  0.0833333333333357  0.4508240066666644   F   F   F
  0.1666666666666643  0.2500000000000000  0.3825093266666642   F   F   F
  0.1666666666666643  0.4166666666666643  0.5465310933333356   F   F   F
  0.0031791292322367  0.5638897907423086  0.6197643681786431   T   T   T
  0.0000000000000000  0.4166666666666643  0.3798644266666642   F   F   F
  0.1666666666666643  0.5833333333333357  0.4534689066666644   F   F   F
  0.1605735691615351  0.4132771065207095  0.6175693015297838   T   T   T
  0.0000000000000000  0.5833333333333357  0.5491759933333356   F   F   F
  0.0000000000000000  0.4166666666666643  0.4508240066666644   F   F   F
  0.1666666666666643  0.5833333333333357  0.3825093266666642   F   F   F
  0.1666666666666643  0.7500000000000000  0.5465310933333356   F   F   F
  0.0173175640203169  0.9145231764385073  0.6196082823515638   T   T   T
  0.0000000000000000  0.7500000000000000  0.3798644266666642   F   F   F
  0.1666666666666643  0.9166666666666643  0.4534689066666644   F   F   F
  0.1691987580097774  0.7583295689859710  0.6178724671796161   T   T   T
  0.0000000000000000  0.9166666666666643  0.5491759933333356   F   F   F
  0.0000000000000000  0.7500000000000000  0.4508240066666644   F   F   F
  0.1666666666666643  0.9166666666666643  0.3825093266666642   F   F   F
  0.5000000000000000  0.0833333333333357  0.5465310933333356   F   F   F
  0.3502631863537147  0.2499922364093763  0.6197158010684802   T   T   T
  0.3333333333333357  0.0833333333333357  0.3798644266666642   F   F   F
  0.5000000000000000  0.2500000000000000  0.4534689066666644   F   F   F
  0.5033835747397148  0.0913010690469704  0.6188479358221528   T   T   T
  0.3333333333333357  0.2500000000000000  0.5491759933333356   F   F   F
  0.3333333333333357  0.0833333333333357  0.4508240066666644   F   F   F
  0.5000000000000000  0.2500000000000000  0.3825093266666642   F   F   F
  0.5000000000000000  0.4166666666666643  0.5465310933333356   F   F   F
  0.3505906810859116  0.5765362980037025  0.6196828373428431   T   T   T
  0.3333333333333357  0.4166666666666643  0.3798644266666642   F   F   F
  0.5000000000000000  0.5833333333333357  0.4534689066666644   F   F   F
  0.4971475827542946  0.4163308739217868  0.6175676224916629   T   T   T
  0.3333333333333357  0.5833333333333357  0.5491759933333356   F   F   F
  0.3333333333333357  0.4166666666666643  0.4508240066666644   F   F   F
  0.5000000000000000  0.5833333333333357  0.3825093266666642   F   F   F
  0.5000000000000000  0.7500000000000000  0.5465310933333356   F   F   F
  0.3352238836159032  0.8975230387724125  0.6198483127661518   T   T   T
  0.3333333333333357  0.7500000000000000  0.3798644266666642   F   F   F
  0.5000000000000000  0.9166666666666643  0.4534689066666644   F   F   F
  0.4923653708755964  0.7468305495707526  0.6176190421276502   T   T   T
  0.3333333333333357  0.9166666666666643  0.5491759933333356   F   F   F
  0.3333333333333357  0.7500000000000000  0.4508240066666644   F   F   F
  0.5000000000000000  0.9166666666666643  0.3825093266666642   F   F   F
  0.8333333333333357  0.0833333333333357  0.5465310933333356   F   F   F
  0.6679973883201029  0.2180134776978164  0.6249987561821655   T   T   T
  0.6666666666666643  0.0833333333333357  0.3798644266666642   F   F   F
  0.8333333333333357  0.2500000000000000  0.4534689066666644   F   F   F
  0.8266685031083796  0.0802849843776201  0.6181680539716154   T   T   T
  0.6666666666666643  0.2500000000000000  0.5491759933333356   F   F   F
  0.6666666666666643  0.0833333333333357  0.4508240066666644   F   F   F
  0.8333333333333357  0.2500000000000000  0.3825093266666642   F   F   F
  0.8333333333333357  0.4166666666666643  0.5465310933333356   F   F   F
  0.6838010215430046  0.5771688436980895  0.6197297393094274   T   T   T
  0.6666666666666643  0.4166666666666643  0.3798644266666642   F   F   F
  0.8333333333333357  0.5833333333333357  0.4534689066666644   F   F   F
  0.8353716902930941  0.4219528534111276  0.6179637234639586   T   T   T
  0.6666666666666643  0.5833333333333357  0.5491759933333356   F   F   F
  0.6666666666666643  0.4166666666666643  0.4508240066666644   F   F   F
  0.8333333333333357  0.5833333333333357  0.3825093266666642   F   F   F
  0.8333333333333357  0.7500000000000000  0.5465310933333356   F   F   F
  0.6827008212934942  0.9078693186833462  0.6198034372636627   T   T   T
  0.6666666666666643  0.7500000000000000  0.3798644266666642   F   F   F
  0.8333333333333357  0.9166666666666643  0.4534689066666644   F   F   F
  0.8302028113950399  0.7498423718983602  0.6174265307799089   T   T   T
  0.6666666666666643  0.9166666666666643  0.5491759933333356   F   F   F
  0.6666666666666643  0.7500000000000000  0.4508240066666644   F   F   F
  0.8333333333333357  0.9166666666666643  0.3825093266666642   F   F   F
  0.7320384745047264  0.2532740971683438  0.6908186648957511   T   T   T
  0.6598291877762108  0.2252921005908917  0.6805447950441561   T   T   T
 
  0.00000000E+00  0.00000000E+00  0.00000000E+00
  0.00000000E+00  0.00000000E+00  0.00000000E+00
  0.00000000E+00  0.00000000E+00  0.00000000E+00
  0.00000000E+00  0.00000000E+00  0.00000000E+00
  0.00000000E+00  0.00000000E+00  0.00000000E+00
  0.00000000E+00  0.00000000E+00  0.00000000E+00
  0.00000000E+00  0.00000000E+00  0.00000000E+00
  0.00000000E+00  0.00000000E+00  0.00000000E+00
  0.00000000E+00  0.00000000E+00  0.00000000E+00
  0.00000000E+00  0.00000000E+00  0.00000000E+00
  0.00000000E+00  0.00000000E+00  0.00000000E+00
  0.00000000E+00  0.00000000E+00  0.00000000E+00
  0.00000000E+00  0.00000000E+00  0.00000000E+00
  0.00000000E+00  0.00000000E+00  0.00000000E+00
  0.00000000E+00  0.00000000E+00  0.00000000E+00
  0.00000000E+00  0.00000000E+00  0.00000000E+00
  0.00000000E+00  0.00000000E+00  0.00000000E+00
  0.00000000E+00  0.00000000E+00  0.00000000E+00
  0.00000000E+00  0.00000000E+00  0.00000000E+00
  0.00000000E+00  0.00000000E+00  0.00000000E+00
  0.00000000E+00  0.00000000E+00  0.00000000E+00
  0.00000000E+00  0.00000000E+00  0.00000000E+00
  0.00000000E+00  0.00000000E+00  0.00000000E+00
  0.00000000E+00  0.00000000E+00  0.00000000E+00
  0.00000000E+00  0.00000000E+00  0.00000000E+00
  0.00000000E+00  0.00000000E+00  0.00000000E+00
  0.00000000E+00  0.00000000E+00  0.00000000E+00
  0.00000000E+00  0.00000000E+00  0.00000000E+00
  0.00000000E+00  0.00000000E+00  0.00000000E+00
  0.00000000E+00  0.00000000E+00  0.00000000E+00
  0.00000000E+00  0.00000000E+00  0.00000000E+00
  0.00000000E+00  0.00000000E+00  0.00000000E+00
  0.00000000E+00  0.00000000E+00  0.00000000E+00
  0.00000000E+00  0.00000000E+00  0.00000000E+00
  0.00000000E+00  0.00000000E+00  0.00000000E+00
  0.00000000E+00  0.00000000E+00  0.00000000E+00
  0.00000000E+00  0.00000000E+00  0.00000000E+00
  0.00000000E+00  0.00000000E+00  0.00000000E+00
  0.00000000E+00  0.00000000E+00  0.00000000E+00
  0.00000000E+00  0.00000000E+00  0.00000000E+00
  0.00000000E+00  0.00000000E+00  0.00000000E+00
  0.00000000E+00  0.00000000E+00  0.00000000E+00
  0.00000000E+00  0.00000000E+00  0.00000000E+00
  0.00000000E+00  0.00000000E+00  0.00000000E+00
  0.00000000E+00  0.00000000E+00  0.00000000E+00
  0.00000000E+00  0.00000000E+00  0.00000000E+00
  0.00000000E+00  0.00000000E+00  0.00000000E+00
  0.00000000E+00  0.00000000E+00  0.00000000E+00
  0.00000000E+00  0.00000000E+00  0.00000000E+00
  0.00000000E+00  0.00000000E+00  0.00000000E+00
  0.00000000E+00  0.00000000E+00  0.00000000E+00
  0.00000000E+00  0.00000000E+00  0.00000000E+00
  0.00000000E+00  0.00000000E+00  0.00000000E+00
  0.00000000E+00  0.00000000E+00  0.00000000E+00
  0.00000000E+00  0.00000000E+00  0.00000000E+00
  0.00000000E+00  0.00000000E+00  0.00000000E+00
  0.00000000E+00  0.00000000E+00  0.00000000E+00
  0.00000000E+00  0.00000000E+00  0.00000000E+00
  0.00000000E+00  0.00000000E+00  0.00000000E+00
  0.00000000E+00  0.00000000E+00  0.00000000E+00
  0.00000000E+00  0.00000000E+00  0.00000000E+00
  0.00000000E+00  0.00000000E+00  0.00000000E+00
  0.00000000E+00  0.00000000E+00  0.00000000E+00
  0.00000000E+00  0.00000000E+00  0.00000000E+00
  0.00000000E+00  0.00000000E+00  0.00000000E+00
  0.00000000E+00  0.00000000E+00  0.00000000E+00
  0.00000000E+00  0.00000000E+00  0.00000000E+00
  0.00000000E+00  0.00000000E+00  0.00000000E+00
  0.00000000E+00  0.00000000E+00  0.00000000E+00
  0.00000000E+00  0.00000000E+00  0.00000000E+00
  0.00000000E+00  0.00000000E+00  0.00000000E+00
  0.00000000E+00  0.00000000E+00  0.00000000E+00
  0.00000000E+00  0.00000000E+00  0.00000000E+00
  0.00000000E+00  0.00000000E+00  0.00000000E+00
