Ge S H O
 1.0000000000000000
    11.7976550077561910    0.0000000000000000    0.0000000000000007
    -0.0000000000000007   11.8000578300000001    0.0000000000000007
     0.0000000000000000    0.0000000000000000   33.9527842490291931
Ge S H O
36 36 1 1
Selective dynamics
Cartesian
  1.9662758346260318  0.9833381525000000 18.5562522973327049   F   F   F
  0.1920365126425166  2.8779809199373254 21.0335153520899496   T   T   T
 -0.0000000000000001  0.9833381525000000 12.8974549224945054   F   F   F
  1.9662758346260316  2.9500144575000000 15.3965319516964882   F   F   F
  1.9229559916468872  0.9832203295132054 20.9611728483695288   T   T   T
 -0.0000000000000002  2.9500144575000000 18.6460540163929629   F   F   F
 -0.0000000000000001  0.9833381525000000 15.3067302326362320   F   F   F
  1.9662758346260316  2.9500144575000000 12.9872566415547617   F   F   F
  1.9662758346260316  4.9166907625000000 18.5562522973327049   F   F   F
  0.0375062699069982  6.6539321405058551 21.0427258780054274   T   T   T
 -0.0000000000000003  4.9166907625000000 12.8974549224945054   F   F   F
  1.9662758346260314  6.8833670675000000 15.3965319516964882   F   F   F
  1.8943915723318978  4.8766937567594120 20.9681972536644707   T   T   T
 -0.0000000000000004  6.8833670675000000 18.6460540163929629   F   F   F
 -0.0000000000000003  4.9166907625000000 15.3067302326362320   F   F   F
  1.9662758346260314  6.8833670675000000 12.9872566415547617   F   F   F
  1.9662758346260314  8.8500433725000001 18.5562522973327049   F   F   F
  0.2043066458863898 10.7914263688496384 21.0374263295942967   T   T   T
 -0.0000000000000005  8.8500433725000001 12.8974549224945054   F   F   F
  1.9662758346260312 10.8167196775000001 15.3965319516964882   F   F   F
  1.9961485747402032  8.9483327682334455 20.9784905715649757   T   T   T
 -0.0000000000000007 10.8167196775000001 18.6460540163929629   F   F   F
 -0.0000000000000005  8.8500433725000001 15.3067302326362320   F   F   F
  1.9662758346260312 10.8167196775000001 12.9872566415547617   F   F   F
  5.8988275038780955  0.9833381525000000 18.5562522973327049   F   F   F
  4.1322842345185222  2.9499228466816554 21.0410768893924853   T   T   T
  3.9325516692520637  0.9833381525000000 12.8974549224945054   F   F   F
  5.8988275038780955  2.9500144575000000 15.3965319516964882   F   F   F
  5.9387457513501829  1.0773578946950870 21.0116104479265005   T   T   T
  3.9325516692520637  2.9500144575000000 18.6460540163929629   F   F   F
  3.9325516692520637  0.9833381525000000 15.3067302326362320   F   F   F
  5.8988275038780955  2.9500144575000000 12.9872566415547617   F   F   F
  5.8988275038780955  4.9166907625000000 18.5562522973327049   F   F   F
  4.1361479043858367  6.8031616575377818 21.0399576791277525   T   T   T
  3.9325516692520632  4.9166907625000000 12.8974549224945054   F   F   F
  5.8988275038780946  6.8833670675000000 15.3965319516964882   F   F   F
  5.8651756692750894  4.9127283886915372 20.9681402456452588   T   T   T
  3.9325516692520632  6.8833670675000000 18.6460540163929629   F   F   F
  3.9325516692520632  4.9166907625000000 15.3067302326362320   F   F   F
  5.8988275038780946  6.8833670675000000 12.9872566415547617   F   F   F
  5.8988275038780955  8.8500433725000001 18.5562522973327049   F   F   F
  3.9548557292606001 10.5908237612718175 21.0455760304738817   T   T   T
  3.9325516692520632  8.8500433725000001 12.8974549224945054   F   F   F
  5.8988275038780946 10.8167196775000001 15.3965319516964882   F   F   F
  5.8087567833561877  8.8126436741455798 20.9698860854522309   T   T   T
  3.9325516692520632 10.8167196775000001 18.6460540163929629   F   F   F
  3.9325516692520632  8.8500433725000001 15.3067302326362320   F   F   F
  5.8988275038780946 10.8167196775000001 12.9872566415547617   F   F   F
  9.8313791731301592  0.9833381525000000 18.5562522973327049   F   F   F
  7.8808027334827102  2.5725716445536442 21.2204479245646382   T   T   T
  7.8651033385041274  0.9833381525000000 12.8974549224945054   F   F   F
  9.8313791731301592  2.9500144575000000 15.3965319516964882   F   F   F
  9.7527498054509181  0.9473674585365366 20.9885265661404219   T   T   T
  7.8651033385041274  2.9500144575000000 18.6460540163929629   F   F   F
  7.8651033385041274  0.9833381525000000 15.3067302326362320   F   F   F
  9.8313791731301592  2.9500144575000000 12.9872566415547617   F   F   F
  9.8313791731301592  4.9166907625000000 18.5562522973327049   F   F   F
  8.0672485461155929  6.8106257333116780 21.0415501314800224   T   T   T
  7.8651033385041274  4.9166907625000000 12.8974549224945054   F   F   F
  9.8313791731301592  6.8833670675000000 15.3965319516964882   F   F   F
  9.8554270053240600  4.9790680717847842 20.9815889764985286   T   T   T
  7.8651033385041274  6.8833670675000000 18.6460540163929629   F   F   F
  7.8651033385041274  4.9166907625000000 15.3067302326362320   F   F   F
  9.8313791731301592  6.8833670675000000 12.9872566415547617   F   F   F
  9.8313791731301592  8.8500433725000001 18.5562522973327049   F   F   F
  8.0542687631324270 10.7129104625462013 21.0440523822198031   T   T   T
  7.8651033385041265  8.8500433725000001 12.8974549224945072   F   F   F
  9.8313791731301574 10.8167196775000001 15.3965319516964900   F   F   F
  9.7944463553079970  8.8481833517850426 20.9633497891967409   T   T   T
  7.8651033385041265 10.8167196775000001 18.6460540163929629   F   F   F
  7.8651033385041265  8.8500433725000001 15.3067302326362338   F   F   F
  9.8313791731301574 10.8167196775000001 12.9872566415547634   F   F   F
  8.6363373746108980  2.9886489934274660 23.4552170844078418   T   T   T
  7.7844371214317540  2.6584598156147043 23.1063905979340660   T   T   T
