Hg Pd O                                 
   1.00000000000000     
     9.3446052078756523    0.0000000000000000    0.0000000000000006
    -0.0000000000000006    9.7038783921006679   -2.1172296531142538
     0.0000000000000000    0.0000000000000000   34.7625802601825029
   Hg   Pd   O 
    24    24     1
Selective dynamics
Direct
  0.0000000000000000  0.0000000000000000  0.4642857142857153   F   F   F
  0.0000000000000000  0.2500000000000000  0.3928571428571459   F   F   F
  0.1666666666666643  0.0000000000000000  0.3928571428571459   F   F   F
  0.1666666666666643  0.2500000000000000  0.4642857142857153   F   F   F
  0.9961061935186066  0.0044818271108369  0.6110679721505861   T   T   T
  0.0000000000000000  0.2500000000000000  0.5357142857142847   F   F   F
  0.1666666666666643  0.0000000000000000  0.5357142857142847   F   F   F
  0.1668658657475035  0.2452918768785395  0.6029442721775951   T   T   T
  0.0000000000000000  0.5000000000000000  0.4642857142857153   F   F   F
  0.0000000000000000  0.7500000000000000  0.3928571428571459   F   F   F
  0.1666666666666643  0.5000000000000000  0.3928571428571459   F   F   F
  0.1666666666666643  0.7500000000000000  0.4642857142857153   F   F   F
  0.0025005331108403  0.5038970119318762  0.6125139022928749   T   T   T
  0.0000000000000000  0.7500000000000000  0.5357142857142847   F   F   F
  0.1666666666666643  0.5000000000000000  0.5357142857142847   F   F   F
  0.1667237691024113  0.7465087685234906  0.6032023990206596   T   T   T
  0.3333333333333357  0.0000000000000000  0.4642857142857153   F   F   F
  0.3333333333333357  0.2500000000000000  0.3928571428571459   F   F   F
  0.5000000000000000  0.0000000000000000  0.3928571428571459   F   F   F
  0.5000000000000000  0.2500000000000000  0.4642857142857153   F   F   F
  0.3374247672971649  0.0045413312557230  0.6111082868092197   T   T   T
  0.3333333333333357  0.2500000000000000  0.5357142857142847   F   F   F
  0.5000000000000000  0.0000000000000000  0.5357142857142847   F   F   F
  0.5006801875002296  0.2480552953453596  0.6044307112512328   T   T   T
  0.3333333333333357  0.5000000000000000  0.4642857142857153   F   F   F
  0.3333333333333357  0.7500000000000000  0.3928571428571459   F   F   F
  0.5000000000000000  0.5000000000000000  0.3928571428571459   F   F   F
  0.5000000000000000  0.7500000000000000  0.4642857142857153   F   F   F
  0.3309251284747390  0.5039503546903035  0.6125322057223386   T   T   T
  0.3333333333333357  0.7500000000000000  0.5357142857142847   F   F   F
  0.5000000000000000  0.5000000000000000  0.5357142857142847   F   F   F
  0.4938916153148085  0.7420247099465627  0.6035844078424759   T   T   T
  0.6666666666666643  0.0000000000000000  0.4642857142857153   F   F   F
  0.6666666666666643  0.2500000000000000  0.3928571428571459   F   F   F
  0.8333333333333357  0.0000000000000000  0.3928571428571459   F   F   F
  0.8333333333333357  0.2500000000000000  0.4642857142857153   F   F   F
  0.6667918368641708  0.9721423502844928  0.6317971695727280   T   T   T
  0.6666666666666643  0.2500000000000000  0.5357142857142847   F   F   F
  0.8333333333333357  0.0000000000000000  0.5357142857142847   F   F   F
  0.8334761625472566  0.2481490563270867  0.6044112419650958   T   T   T
  0.6666666666666643  0.5000000000000000  0.4642857142857153   F   F   F
  0.6666666666666643  0.7500000000000000  0.3928571428571459   F   F   F
  0.8333333333333357  0.5000000000000000  0.3928571428571459   F   F   F
  0.8333333333333357  0.7500000000000000  0.4642857142857153   F   F   F
  0.6665679571255083  0.5122097650872206  0.6102350188202337   T   T   T
  0.6666666666666643  0.7500000000000000  0.5357142857142847   F   F   F
  0.8333333333333357  0.5000000000000000  0.5357142857142847   F   F   F
  0.8395184964423947  0.7418519434550248  0.6035935701505366   T   T   T
  0.6670669727871612  0.2079449893336474  0.6402314571670544   T   T   T
 
  0.00000000E+00  0.00000000E+00  0.00000000E+00
  0.00000000E+00  0.00000000E+00  0.00000000E+00
  0.00000000E+00  0.00000000E+00  0.00000000E+00
  0.00000000E+00  0.00000000E+00  0.00000000E+00
  0.00000000E+00  0.00000000E+00  0.00000000E+00
  0.00000000E+00  0.00000000E+00  0.00000000E+00
  0.00000000E+00  0.00000000E+00  0.00000000E+00
  0.00000000E+00  0.00000000E+00  0.00000000E+00
  0.00000000E+00  0.00000000E+00  0.00000000E+00
  0.00000000E+00  0.00000000E+00  0.00000000E+00
  0.00000000E+00  0.00000000E+00  0.00000000E+00
  0.00000000E+00  0.00000000E+00  0.00000000E+00
  0.00000000E+00  0.00000000E+00  0.00000000E+00
  0.00000000E+00  0.00000000E+00  0.00000000E+00
  0.00000000E+00  0.00000000E+00  0.00000000E+00
  0.00000000E+00  0.00000000E+00  0.00000000E+00
  0.00000000E+00  0.00000000E+00  0.00000000E+00
  0.00000000E+00  0.00000000E+00  0.00000000E+00
  0.00000000E+00  0.00000000E+00  0.00000000E+00
  0.00000000E+00  0.00000000E+00  0.00000000E+00
  0.00000000E+00  0.00000000E+00  0.00000000E+00
  0.00000000E+00  0.00000000E+00  0.00000000E+00
  0.00000000E+00  0.00000000E+00  0.00000000E+00
  0.00000000E+00  0.00000000E+00  0.00000000E+00
  0.00000000E+00  0.00000000E+00  0.00000000E+00
  0.00000000E+00  0.00000000E+00  0.00000000E+00
  0.00000000E+00  0.00000000E+00  0.00000000E+00
  0.00000000E+00  0.00000000E+00  0.00000000E+00
  0.00000000E+00  0.00000000E+00  0.00000000E+00
  0.00000000E+00  0.00000000E+00  0.00000000E+00
  0.00000000E+00  0.00000000E+00  0.00000000E+00
  0.00000000E+00  0.00000000E+00  0.00000000E+00
  0.00000000E+00  0.00000000E+00  0.00000000E+00
  0.00000000E+00  0.00000000E+00  0.00000000E+00
  0.00000000E+00  0.00000000E+00  0.00000000E+00
  0.00000000E+00  0.00000000E+00  0.00000000E+00
  0.00000000E+00  0.00000000E+00  0.00000000E+00
  0.00000000E+00  0.00000000E+00  0.00000000E+00
  0.00000000E+00  0.00000000E+00  0.00000000E+00
  0.00000000E+00  0.00000000E+00  0.00000000E+00
  0.00000000E+00  0.00000000E+00  0.00000000E+00
  0.00000000E+00  0.00000000E+00  0.00000000E+00
  0.00000000E+00  0.00000000E+00  0.00000000E+00
  0.00000000E+00  0.00000000E+00  0.00000000E+00
  0.00000000E+00  0.00000000E+00  0.00000000E+00
  0.00000000E+00  0.00000000E+00  0.00000000E+00
  0.00000000E+00  0.00000000E+00  0.00000000E+00
  0.00000000E+00  0.00000000E+00  0.00000000E+00
  0.00000000E+00  0.00000000E+00  0.00000000E+00
