Hg Pd O
 1.0000000000000000
     9.3446052078756523    0.0000000000000000    0.0000000000000006
    -0.0000000000000006    9.7038783921006679   -2.1172296531142538
     0.0000000000000000    0.0000000000000000   34.7625802601825029
Hg Pd O
24 24 1
Selective dynamics
Cartesian
  0.0000000000000000  0.0000000000000000 16.1397694065133059   F   F   F
 -0.0000000000000001  2.4259695980251670 13.1274205460788487   F   F   F
  1.5574342013126086  0.0000000000000000 13.6567279593574114   F   F   F
  1.5574342013126083  2.4259695980251670 15.6104619932347433   F   F   F
 -0.0363860843244765  0.0434911052579992 21.2328103690524834   T   T   T
 -0.0000000000000001  2.4259695980251670 18.0935034403906343   F   F   F
  1.5574342013126086  0.0000000000000000 18.6228108536691970   F   F   F
  1.5592956380808032  2.3802825437994577 20.4405594185957078   T   T   T
 -0.0000000000000003  4.8519391960503340 15.0811545799561788   F   F   F
 -0.0000000000000004  7.2779087940755005 12.0688057195217215   F   F   F
  1.5574342013126083  4.8519391960503340 12.5981131328002842   F   F   F
  1.5574342013126081  7.2779087940755005 14.5518471666776161   F   F   F
  0.0233664947299982  4.8897553259298361 20.2256979931556948   T   T   T
 -0.0000000000000004  7.2779087940755005 17.0348886138335089   F   F   F
  1.5574342013126083  4.8519391960503340 17.5641960271120716   F   F   F
  1.5579678010310456  7.2440303083887727 19.3883413080626106   T   T   T
  3.1148684026252171  0.0000000000000000 16.1397694065133059   F   F   F
  3.1148684026252171  2.4259695980251670 13.1274205460788487   F   F   F
  4.6723026039378261  0.0000000000000000 13.6567279593574114   F   F   F
  4.6723026039378253  2.4259695980251670 15.6104619932347433   F   F   F
  3.1531012377513266  0.0440685262437910 21.2340858266689132   T   T   T
  3.1148684026252171  2.4259695980251670 18.0935034403906343   F   F   F
  4.6723026039378261  0.0000000000000000 18.6228108536691970   F   F   F
  4.6786586875948357  2.4070984205479724 20.4863810846729528   T   T   T
  3.1148684026252167  4.8519391960503340 15.0811545799561788   F   F   F
  3.1148684026252167  7.2779087940755005 12.0688057195217215   F   F   F
  4.6723026039378253  4.8519391960503340 12.5981131328002842   F   F   F
  4.6723026039378253  7.2779087940755005 14.5518471666776161   F   F   F
  3.0923646789619679  4.8902729575706685 20.2262213287216532   T   T   T
  3.1148684026252167  7.2779087940755005 17.0348886138335089   F   F   F
  4.6723026039378253  4.8519391960503340 17.5641960271120716   F   F   F
  4.6152221605968604  7.2005175492551814 19.4111147021763664   T   T   T
  6.2297368052504343  0.0000000000000000 16.1397694065133059   F   F   F
  6.2297368052504343  2.4259695980251670 13.1274205460788487   F   F   F
  7.7871710065630424  0.0000000000000000 13.6567279593574114   F   F   F
  7.7871710065630424  2.4259695980251670 15.6104619932347433   F   F   F
  6.2309064713299112 -0.2703272451290104 22.0218808574718672   T   T   T
  6.2297368052504343  2.4259695980251670 18.0935034403906343   F   F   F
  7.7871710065630424  0.0000000000000000 18.6228108536691970   F   F   F
  7.7885056891793312  2.4080082657126147 20.4855057685201380   T   T   T
  6.2297368052504343  4.8519391960503340 15.0811545799561788   F   F   F
  6.2297368052504343  7.2779087940755005 12.0688057195217215   F   F   F
  7.7871710065630424  4.8519391960503340 12.5981131328002842   F   F   F
  7.7871710065630424  7.2779087940755005 14.5518471666776161   F   F   F
  6.2288144035580562  4.9704212716528486 20.1288781160550521   T   T   T
  6.2297368052504343  7.2779087940755005 17.0348886138335089   F   F   F
  7.7871710065630424  4.8519391960503340 17.5641960271120716   F   F   F
  7.8449689139635694  7.1988410442311022 19.4117989939846503   T   T   T
  6.2334775079087485  2.0178728887403734 21.8158301172296198   T   T   T
