Ga S Zn                                 
   1.00000000000000     
    10.5960429026038518    0.0000000000000000    0.8384011971130300
     5.2346806069340541   12.2124211163335410    1.2197270132613327
     0.0000000000000000    0.0000000000000000   33.6888360101871669
   Ga   S    Zn
    16    32     8
Selective dynamics
Direct
  0.2217185730446971  0.3149187592975622  0.5953754524155599   T   T   T
  0.3928571428571459  0.4464285714285694  0.5357142857142847   F   F   F
  0.1071428571428541  0.0535714285714306  0.4642857142857153   F   F   F
  0.3214285714285694  0.1607142857142847  0.3928571428571459   F   F   F
  0.0845356792505711  0.2878821325129550  0.5521084913670222   T   T   T
  0.2393704084828343  0.4818784427493981  0.5925551545390846   T   T   T
  0.3673586513493632  0.1767040588173003  0.6302344379368634   T   T   T
  0.4378331699999976  0.1033092675000020  0.5164569749999970   F   F   F
  0.0246245578571447  0.0093175489285713  0.4084584807142875   F   F   F
  0.1667427757142832  0.2049681653571440  0.4486843764285737   F   F   F
  0.2993709249999981  0.3966907324999980  0.4835430250000030   F   F   F
  0.3664045985714282  0.3175949817857173  0.3735998321428582   F   F   F
  0.0258104971668800  0.1316464591762028  0.5767735739639193   T   T   T
  0.4642857142857153  0.3571428571428541  0.4285714285714306   F   F   F
  0.2217099753881158  0.8149308598130531  0.5953556621466447   T   T   T
  0.3928571428571459  0.9464285714285694  0.5357142857142847   F   F   F
  0.1071428571428541  0.5535714285714306  0.4642857142857153   F   F   F
  0.3214285714285694  0.6607142857142847  0.3928571428571459   F   F   F
  0.0845054980550373  0.7878722703842485  0.5521013889189845   T   T   T
  0.2393635522915574  0.9818834785271520  0.5925492807041834   T   T   T
  0.3673187687590627  0.6767269937084919  0.6302285428916150   T   T   T
  0.4378331699999976  0.6033092675000020  0.5164569749999970   F   F   F
  0.0246245578571447  0.5093175489285713  0.4084584807142875   F   F   F
  0.1667427757142832  0.7049681653571440  0.4486843764285737   F   F   F
  0.2993709249999981  0.8966907324999980  0.4835430250000030   F   F   F
  0.3664045985714282  0.8175949817857173  0.3735998321428582   F   F   F
  0.0258260884454558  0.6316188169467054  0.5767768111030946   T   T   T
  0.4642857142857153  0.8571428571428541  0.4285714285714306   F   F   F
  0.7216574410411809  0.3149154004853116  0.5954535175917499   T   T   T
  0.8928571428571459  0.4464285714285694  0.5357142857142847   F   F   F
  0.6071428571428541  0.0535714285714306  0.4642857142857153   F   F   F
  0.8214285714285694  0.1607142857142847  0.3928571428571459   F   F   F
  0.5846133077260092  0.2878757494684834  0.5521322384350213   T   T   T
  0.7393681425779306  0.4818741521769141  0.5925663066688500   T   T   T
  0.8675234431940453  0.1766861641653819  0.6302384853534591   T   T   T
  0.9378331699999976  0.1033092675000020  0.5164569749999970   F   F   F
  0.5246245578571447  0.0093175489285713  0.4084584807142875   F   F   F
  0.6667427757142832  0.2049681653571440  0.4486843764285737   F   F   F
  0.7993709249999981  0.3966907324999980  0.4835430250000030   F   F   F
  0.8664045985714282  0.3175949817857173  0.3735998321428582   F   F   F
  0.5257365830970144  0.1317228386302247  0.5768038072752546   T   T   T
  0.9642857142857153  0.3571428571428541  0.4285714285714306   F   F   F
  0.7216532158460041  0.8149404730163141  0.5954323463781535   T   T   T
  0.8928571428571459  0.9464285714285694  0.5357142857142847   F   F   F
  0.6071428571428541  0.5535714285714306  0.4642857142857153   F   F   F
  0.8214285714285694  0.6607142857142847  0.3928571428571459   F   F   F
  0.5845898135568106  0.7878698160879480  0.5521279258685539   T   T   T
  0.7393651120720648  0.9818894309871453  0.5925602858555337   T   T   T
  0.8674933403401397  0.6767194177889024  0.6302297393668397   T   T   T
  0.9378331699999976  0.6033092675000020  0.5164569749999970   F   F   F
  0.5246245578571447  0.5093175489285713  0.4084584807142875   F   F   F
  0.6667427757142832  0.7049681653571440  0.4486843764285737   F   F   F
  0.7993709249999981  0.8966907324999980  0.4835430250000030   F   F   F
  0.8664045985714282  0.8175949817857173  0.3735998321428582   F   F   F
  0.5257500000751136  0.6316977714037790  0.5768104549544830   T   T   T
  0.9642857142857153  0.8571428571428541  0.4285714285714306   F   F   F
 
  0.00000000E+00  0.00000000E+00  0.00000000E+00
  0.00000000E+00  0.00000000E+00  0.00000000E+00
  0.00000000E+00  0.00000000E+00  0.00000000E+00
  0.00000000E+00  0.00000000E+00  0.00000000E+00
  0.00000000E+00  0.00000000E+00  0.00000000E+00
  0.00000000E+00  0.00000000E+00  0.00000000E+00
  0.00000000E+00  0.00000000E+00  0.00000000E+00
  0.00000000E+00  0.00000000E+00  0.00000000E+00
  0.00000000E+00  0.00000000E+00  0.00000000E+00
  0.00000000E+00  0.00000000E+00  0.00000000E+00
  0.00000000E+00  0.00000000E+00  0.00000000E+00
  0.00000000E+00  0.00000000E+00  0.00000000E+00
  0.00000000E+00  0.00000000E+00  0.00000000E+00
  0.00000000E+00  0.00000000E+00  0.00000000E+00
  0.00000000E+00  0.00000000E+00  0.00000000E+00
  0.00000000E+00  0.00000000E+00  0.00000000E+00
  0.00000000E+00  0.00000000E+00  0.00000000E+00
  0.00000000E+00  0.00000000E+00  0.00000000E+00
  0.00000000E+00  0.00000000E+00  0.00000000E+00
  0.00000000E+00  0.00000000E+00  0.00000000E+00
  0.00000000E+00  0.00000000E+00  0.00000000E+00
  0.00000000E+00  0.00000000E+00  0.00000000E+00
  0.00000000E+00  0.00000000E+00  0.00000000E+00
  0.00000000E+00  0.00000000E+00  0.00000000E+00
  0.00000000E+00  0.00000000E+00  0.00000000E+00
  0.00000000E+00  0.00000000E+00  0.00000000E+00
  0.00000000E+00  0.00000000E+00  0.00000000E+00
  0.00000000E+00  0.00000000E+00  0.00000000E+00
  0.00000000E+00  0.00000000E+00  0.00000000E+00
  0.00000000E+00  0.00000000E+00  0.00000000E+00
  0.00000000E+00  0.00000000E+00  0.00000000E+00
  0.00000000E+00  0.00000000E+00  0.00000000E+00
  0.00000000E+00  0.00000000E+00  0.00000000E+00
  0.00000000E+00  0.00000000E+00  0.00000000E+00
  0.00000000E+00  0.00000000E+00  0.00000000E+00
  0.00000000E+00  0.00000000E+00  0.00000000E+00
  0.00000000E+00  0.00000000E+00  0.00000000E+00
  0.00000000E+00  0.00000000E+00  0.00000000E+00
  0.00000000E+00  0.00000000E+00  0.00000000E+00
  0.00000000E+00  0.00000000E+00  0.00000000E+00
  0.00000000E+00  0.00000000E+00  0.00000000E+00
  0.00000000E+00  0.00000000E+00  0.00000000E+00
  0.00000000E+00  0.00000000E+00  0.00000000E+00
  0.00000000E+00  0.00000000E+00  0.00000000E+00
  0.00000000E+00  0.00000000E+00  0.00000000E+00
  0.00000000E+00  0.00000000E+00  0.00000000E+00
  0.00000000E+00  0.00000000E+00  0.00000000E+00
  0.00000000E+00  0.00000000E+00  0.00000000E+00
  0.00000000E+00  0.00000000E+00  0.00000000E+00
  0.00000000E+00  0.00000000E+00  0.00000000E+00
  0.00000000E+00  0.00000000E+00  0.00000000E+00
  0.00000000E+00  0.00000000E+00  0.00000000E+00
  0.00000000E+00  0.00000000E+00  0.00000000E+00
  0.00000000E+00  0.00000000E+00  0.00000000E+00
  0.00000000E+00  0.00000000E+00  0.00000000E+00
  0.00000000E+00  0.00000000E+00  0.00000000E+00
