Ga S Zn
 1.0000000000000000
    10.5960429026038518    0.0000000000000000    0.8384011971130300
     5.2346806069340541   12.2124211163335410    1.2197270132613327
     0.0000000000000000    0.0000000000000000   33.6888360101871669
Ga S Zn
16 32 8
Selective dynamics
Cartesian
  3.9978386343403640  3.8459205059751049 20.6275100156796078   T   T   T
  6.4996421255470720  5.4519737126489014 18.9214836066720515   F   F   F
  1.4157196292218797  0.6542368455178713 15.7964165087022952   F   F   F
  4.2471588876656376  1.9627105365536033 13.7004135159197187   F   F   F
  2.4027147002882216  3.5157378341163650 19.0219048538391995   T   T   T
  5.0588588570578006  5.8849024697386900 20.7509420190134684   T   T   T
  4.8175373401979797  2.1579843792422322 21.7553892745810451   T   T   T
  5.1800900726018586  1.2616562799299562 17.8919232952461122   F   F   F
  0.3096972641924877  0.1137898312877549 13.7925008986651374   F   F   F
  2.8397564854017112  2.5031575507837212 15.5054569287487602   F   F   F
  5.2486964494604145  4.8445542782368225 17.0248490173363471   F   F   F
  5.5449471381874513  3.8786036620014279 13.2807167111244464   F   F   F
  0.9626163021390171  1.6077219979340045 19.6130426424603250   T   T   T
  6.7891201358282363  4.3615789701191252 15.2629470649045995   F   F   F
  6.6151511790031829  9.9522788407327685 21.2367143622262056   T   T   T
  9.1169824290140991 11.5581842708156728 19.5313471133027186   F   F   F
  4.0330599326889072  6.7604474036846423 16.4062800153329604   F   F   F
  6.8644991911326647  8.0689210947203733 14.3102770225503857   F   F   F
  5.0196835774186068  9.6218279518142449 19.6314917542073069   T   T   T
  7.6761528727160275 11.9911745269440253 21.3606080370187179   T   T   T
  7.4345751028572549  8.2644750279584969 22.3650487206939950   T   T   T
  7.7974303760688857  7.3678668380967265 18.5017868018767793   F   F   F
  2.9270375676595148  6.2200003894545253 14.4023644052958044   F   F   F
  5.4570967888687383  8.6093681089504912 16.1153204353794273   F   F   F
  7.8660367529274415 10.9507648364035930 17.6347125239670142   F   F   F
  8.1622874416544775  9.9848142201681984 13.8905802177551134   F   F   F
  3.5799771132199978  7.7135949775535151 20.2229945603142518   T   T   T
  9.4064604392952624 10.4677895282858948 15.8728105715352665   F   F   F
  9.2951947460010160  3.8458794867454209 21.0492851891760218   T   T   T
 11.7976635768489970  5.4519737126489014 19.3406842052285661   F   F   F
  6.7137410805238051  0.6542368455178713 16.2156171072588116   F   F   F
  9.5451803389675636  1.9627105365536033 14.1196141144762333   F   F   F
  7.7015252930472098  3.5156598816892739 19.4419627617103110   T   T   T
 10.3568338389575771  5.8848500714606322 21.1705111867763129   T   T   T
 10.1172112601688138  2.1577658422173114 22.1748425609809452   T   T   T
 10.4781115239037845  1.2616562799299562 18.3111238938026268   F   F   F
  5.6077187154944133  0.1137898312877549 14.2117014972216520   F   F   F
  8.1377779367036371  2.5031575507837212 15.9246575273052748   F   F   F
 10.5467179007623404  4.8445542782368225 17.4440496158928617   F   F   F
 10.8429685894893773  3.8786036620014279 13.6999173096809610   F   F   F
  6.2602543788322969  1.6086547759911811 20.0332929585230879   T   T   T
 12.0871415871301622  4.3615789701191252 15.6821476634611141   F   F   F
 11.9126215258104473  9.9523962412192564 21.6584625014982883   T   T   T
 14.4150038803160250 11.5581842708156728 19.9505477118592331   F   F   F
  9.3310813839908331  6.7604474036846423 16.8254806138894750   F   F   F
 12.1625206424345897  8.0689210947203733 14.7294776211069003   F   F   F
 10.3185855919374561  9.6217979789143069 20.0516540483523791   T   T   T
 12.9742220107460202 11.9912472208921095 21.7801879544123089   T   T   T
 12.7344066646025098  8.2643825076381745 22.7844267475769335   T   T   T
 13.0954518273708125  7.3678668380967265 18.9209874004332939   F   F   F
  8.2250590189614403  6.2200003894545253 14.8215650038523190   F   F   F
 10.7551182401706633  8.6093681089504912 16.5345210339359419   F   F   F
 13.1640582042293666 10.9507648364035930 18.0539131225235288   F   F   F
 13.4603088929564052  9.9848142201681984 14.3097808163116280   F   F   F
  8.8776056302507342  7.7145592026323753 20.6433610913662626   T   T   T
 14.7044818905971901 10.4677895282858948 16.2920111700917793   F   F   F
