H Pd
 1.0000000000000000
     8.8308406688682037    0.0000000000000000    0.0000000000000005
    -0.0000000000000005    8.8308406688682037    0.0000000000000005
     0.0000000000000000    0.0000000000000000   29.1402874958283853
H Pd
36 36
Selective dynamics
Cartesian
  0.0000000000000000  0.0000000000000000 15.6108683013366321   F   F   F
  1.4719935650583738  1.4723763725211301 17.7119654469636991   T   T   T
  2.9436135562894012  0.0000000000000000 11.4479700876468637   F   F   F
  1.4718067781447008  1.4718067781447004 13.5294191944917515   F   F   F
  0.0025585334587959 -0.0000818020998850 17.6260405666174158   T   T   T
  1.4718067781447006  1.4718067781447006 15.6108683013366321   F   F   F
  0.0000000000000000  0.0000000000000000 13.5294191944917515   F   F   F
  1.4718067781447008  1.4718067781447004 11.4479700876468637   F   F   F
 -0.0000000000000002  2.9436135562894012 15.6108683013366321   F   F   F
  1.4720991547864102  4.4147547162655334 17.7115804610287562   T   T   T
  2.9436135562894012  2.9436135562894012 11.4479700876468637   F   F   F
  1.4718067781447006  4.4154203344341019 13.5294191944917515   F   F   F
  0.0024521121376891  2.9428262589765470 17.6261275421341672   T   T   T
  1.4718067781447004  4.4154203344341019 15.6108683013366321   F   F   F
 -0.0000000000000002  2.9436135562894012 13.5294191944917515   F   F   F
  1.4718067781447006  4.4154203344341019 11.4479700876468637   F   F   F
 -0.0000000000000004  5.8872271125788025 15.6108683013366321   F   F   F
  1.4716281810611958  7.3586899855801216 17.7114517864750489   T   T   T
  2.9436135562894008  5.8872271125788025 11.4479700876468637   F   F   F
  1.4718067781447004  7.3590338907235031 13.5294191944917515   F   F   F
  0.0023792331776345  5.8874298785363131 17.6264438958817884   T   T   T
  1.4718067781447002  7.3590338907235031 15.6108683013366321   F   F   F
 -0.0000000000000004  5.8872271125788025 13.5294191944917515   F   F   F
  1.4718067781447004  7.3590338907235031 11.4479700876468637   F   F   F
  2.9436135562894012  0.0000000000000000 15.6108683013366321   F   F   F
  4.4146232877291274  1.4721195507069114 17.7113333277150780   T   T   T
  5.8872271125788025  0.0000000000000000 11.4479700876468637   F   F   F
  4.4154203344341019  1.4718067781447004 13.5294191944917515   F   F   F
  2.9432831563813213 -0.0001595032529167 17.6254524194149091   T   T   T
  4.4154203344341019  1.4718067781447006 15.6108683013366321   F   F   F
  2.9436135562894012  0.0000000000000000 13.5294191944917515   F   F   F
  4.4154203344341019  1.4718067781447004 11.4479700876468637   F   F   F
  2.9436135562894012  2.9436135562894012 15.6108683013366321   F   F   F
  4.4150713129046286  4.4152982104705094 17.7115564868066251   T   T   T
  5.8872271125788025  2.9436135562894012 11.4479700876468637   F   F   F
  4.4154203344341019  4.4154203344341019 13.5294191944917515   F   F   F
  2.9429518955851197  2.9438997817917514 17.6255596057956829   T   T   T
  4.4154203344341019  4.4154203344341019 15.6108683013366321   F   F   F
  2.9436135562894012  2.9436135562894012 13.5294191944917515   F   F   F
  4.4154203344341019  4.4154203344341019 11.4479700876468637   F   F   F
  2.9436135562894008  5.8872271125788025 15.6108683013366321   F   F   F
  4.4148501401731561  7.3589210864321553 17.7111747897209391   T   T   T
  5.8872271125788025  5.8872271125788025 11.4479700876468637   F   F   F
  4.4154203344341019  7.3590338907235031 13.5294191944917515   F   F   F
  2.9429477032165408  5.8875403288607409 17.6261850063668355   T   T   T
  4.4154203344341010  7.3590338907235031 15.6108683013366321   F   F   F
  2.9436135562894008  5.8872271125788025 13.5294191944917515   F   F   F
  4.4154203344341019  7.3590338907235031 11.4479700876468637   F   F   F
  5.8872271125788025  0.0000000000000000 15.6108683013366321   F   F   F
  7.3593534551656825  1.4722280014281113 17.7110506687525451   T   T   T
  8.8308406688682037  0.0000000000000000 11.4479700876468637   F   F   F
  7.3590338907235031  1.4718067781447004 13.5294191944917515   F   F   F
  5.8869168005535535  0.0005474176650750 17.6263810863232031   T   T   T
  7.3590338907235031  1.4718067781447006 15.6108683013366321   F   F   F
  5.8872271125788025  0.0000000000000000 13.5294191944917515   F   F   F
  7.3590338907235031  1.4718067781447004 11.4479700876468637   F   F   F
  5.8872271125788025  2.9436135562894012 15.6108683013366321   F   F   F
  7.3590281431335365  4.4149479610067734 17.7105750311378181   T   T   T
  8.8308406688682037  2.9436135562894012 11.4479700876468637   F   F   F
  7.3590338907235031  4.4154203344341019 13.5294191944917515   F   F   F
  5.8870460594717038  2.9430874492075052 17.6265274748651102   T   T   T
  7.3590338907235031  4.4154203344341019 15.6108683013366321   F   F   F
  5.8872271125788025  2.9436135562894012 13.5294191944917515   F   F   F
  7.3590338907235031  4.4154203344341019 11.4479700876468637   F   F   F
  5.8872271125788025  5.8872271125788025 15.6108683013366321   F   F   F
  7.3587591922552287  7.3584159453750084 17.7103423049187079   T   T   T
  8.8308406688682037  5.8872271125788025 11.4479700876468637   F   F   F
  7.3590338907235031  7.3590338907235031 13.5294191944917515   F   F   F
  5.8867986057507729  5.8875937829475511 17.6269668395610317   T   T   T
  7.3590338907235031  7.3590338907235031 15.6108683013366321   F   F   F
  5.8872271125788025  5.8872271125788025 13.5294191944917515   F   F   F
  7.3590338907235031  7.3590338907235031 11.4479700876468637   F   F   F
