Te Pd Te Pd Te Pd Te Pd Te Pd Te Pd Te P
   1.00000000000000     
    11.4545060173354365    0.0000000000000000    0.0000000000000007
    -0.0000000000000006   10.0011441711883435    0.0000000000000006
     0.0000000000000000    0.0000000000000000   30.0034325135650306
   Te   Pd   O 
    16    48     1
Selective dynamics
Direct
  0.0000000000000000  0.2500000000000000  0.3750000000000000   F   F   F
  0.0000000000000000  0.0000000000000000  0.4583333333333357   F   F   F
  0.3740449599999991  0.2500000000000000  0.4583333333333357   F   F   F
  0.3740449599999991  0.5000000000000000  0.3750000000000000   F   F   F
  0.2500000000000000  0.2500000000000000  0.3750000000000000   F   F   F
  0.2500000000000000  0.0000000000000000  0.4583333333333357   F   F   F
  0.1259550400000009  0.2500000000000000  0.4583333333333357   F   F   F
  0.1259550400000009  0.5000000000000000  0.3750000000000000   F   F   F
  0.0000000000000000  0.2500000000000000  0.5416666666666643   F   F   F
  0.9572806103662046  0.0144717451480858  0.6400539749892857   T   T   T
  0.3411430645846991  0.1435776337791026  0.6229148364904731   T   T   T
  0.3740449599999991  0.5000000000000000  0.5416666666666643   F   F   F
  0.2500000000000000  0.2500000000000000  0.5416666666666643   F   F   F
  0.1750862566504594  0.9317458265873384  0.6245870869170957   T   T   T
  0.1154514643274211  0.2967387333335054  0.6203871891670332   T   T   T
  0.1259550400000009  0.5000000000000000  0.5416666666666643   F   F   F
  0.0000000000000000  0.7500000000000000  0.3750000000000000   F   F   F
  0.0000000000000000  0.5000000000000000  0.4583333333333357   F   F   F
  0.3740449599999991  0.7500000000000000  0.4583333333333357   F   F   F
  0.3740449599999991  0.0000000000000000  0.3750000000000000   F   F   F
  0.2500000000000000  0.7500000000000000  0.3750000000000000   F   F   F
  0.2500000000000000  0.5000000000000000  0.4583333333333357   F   F   F
  0.1259550400000009  0.7500000000000000  0.4583333333333357   F   F   F
  0.1259550400000009  0.0000000000000000  0.3750000000000000   F   F   F
  0.0000000000000000  0.7500000000000000  0.5416666666666643   F   F   F
  0.9663362339038315  0.4999037861052713  0.6516094423658174   T   T   T
  0.3780201522992073  0.7603448643380020  0.6214292385465683   T   T   T
  0.3740449599999991  0.0000000000000000  0.5416666666666643   F   F   F
  0.2500000000000000  0.7500000000000000  0.5416666666666643   F   F   F
  0.3204696918853287  0.4748777172169412  0.6286617197947990   T   T   T
  0.1281252437000617  0.6557077341407904  0.6175932507845445   T   T   T
  0.1259550400000009  0.0000000000000000  0.5416666666666643   F   F   F
  0.5000000000000000  0.2500000000000000  0.3750000000000000   F   F   F
  0.5000000000000000  0.0000000000000000  0.4583333333333357   F   F   F
  0.8740449599999991  0.2500000000000000  0.4583333333333357   F   F   F
  0.8740449599999991  0.5000000000000000  0.3750000000000000   F   F   F
  0.7500000000000000  0.2500000000000000  0.3750000000000000   F   F   F
  0.7500000000000000  0.0000000000000000  0.4583333333333357   F   F   F
  0.6259550400000009  0.2500000000000000  0.4583333333333357   F   F   F
  0.6259550400000009  0.5000000000000000  0.3750000000000000   F   F   F
  0.5000000000000000  0.2500000000000000  0.5416666666666643   F   F   F
  0.5064580287797966  0.9815474677283831  0.6490172195986190   T   T   T
  0.8690141050259754  0.2626477529823461  0.6225492401172517   T   T   T
  0.8740449599999991  0.5000000000000000  0.5416666666666643   F   F   F
  0.7500000000000000  0.2500000000000000  0.5416666666666643   F   F   F
  0.7254317696111983  0.0302366009422457  0.6225837753477492   T   T   T
  0.6037609394298258  0.2852035699012632  0.6206512383816971   T   T   T
  0.6259550400000009  0.5000000000000000  0.5416666666666643   F   F   F
  0.5000000000000000  0.7500000000000000  0.3750000000000000   F   F   F
  0.5000000000000000  0.5000000000000000  0.4583333333333357   F   F   F
  0.8740449599999991  0.7500000000000000  0.4583333333333357   F   F   F
  0.8740449599999991  0.0000000000000000  0.3750000000000000   F   F   F
  0.7500000000000000  0.7500000000000000  0.3750000000000000   F   F   F
  0.7500000000000000  0.5000000000000000  0.4583333333333357   F   F   F
  0.6259550400000009  0.7500000000000000  0.4583333333333357   F   F   F
  0.6259550400000009  0.0000000000000000  0.3750000000000000   F   F   F
  0.5000000000000000  0.7500000000000000  0.5416666666666643   F   F   F
  0.5320755951952307  0.5344798531178370  0.6522725674780503   T   T   T
  0.8831340927760181  0.7667622791931379  0.6211343978780519   T   T   T
  0.8740449599999991  0.0000000000000000  0.5416666666666643   F   F   F
  0.7500000000000000  0.7500000000000000  0.5416666666666643   F   F   F
  0.7518050471717004  0.5178483150030573  0.6216131568199401   T   T   T
  0.6281140109876944  0.7628203609443176  0.6227873900040066   T   T   T
  0.6259550400000009  0.0000000000000000  0.5416666666666643   F   F   F
  0.2671164303732212  0.2990709500565316  0.6564445412095878   T   T   T
 
  0.00000000E+00  0.00000000E+00  0.00000000E+00
  0.00000000E+00  0.00000000E+00  0.00000000E+00
  0.00000000E+00  0.00000000E+00  0.00000000E+00
  0.00000000E+00  0.00000000E+00  0.00000000E+00
  0.00000000E+00  0.00000000E+00  0.00000000E+00
  0.00000000E+00  0.00000000E+00  0.00000000E+00
  0.00000000E+00  0.00000000E+00  0.00000000E+00
  0.00000000E+00  0.00000000E+00  0.00000000E+00
  0.00000000E+00  0.00000000E+00  0.00000000E+00
  0.00000000E+00  0.00000000E+00  0.00000000E+00
  0.00000000E+00  0.00000000E+00  0.00000000E+00
  0.00000000E+00  0.00000000E+00  0.00000000E+00
  0.00000000E+00  0.00000000E+00  0.00000000E+00
  0.00000000E+00  0.00000000E+00  0.00000000E+00
  0.00000000E+00  0.00000000E+00  0.00000000E+00
  0.00000000E+00  0.00000000E+00  0.00000000E+00
  0.00000000E+00  0.00000000E+00  0.00000000E+00
  0.00000000E+00  0.00000000E+00  0.00000000E+00
  0.00000000E+00  0.00000000E+00  0.00000000E+00
  0.00000000E+00  0.00000000E+00  0.00000000E+00
  0.00000000E+00  0.00000000E+00  0.00000000E+00
  0.00000000E+00  0.00000000E+00  0.00000000E+00
  0.00000000E+00  0.00000000E+00  0.00000000E+00
  0.00000000E+00  0.00000000E+00  0.00000000E+00
  0.00000000E+00  0.00000000E+00  0.00000000E+00
  0.00000000E+00  0.00000000E+00  0.00000000E+00
  0.00000000E+00  0.00000000E+00  0.00000000E+00
  0.00000000E+00  0.00000000E+00  0.00000000E+00
  0.00000000E+00  0.00000000E+00  0.00000000E+00
  0.00000000E+00  0.00000000E+00  0.00000000E+00
  0.00000000E+00  0.00000000E+00  0.00000000E+00
  0.00000000E+00  0.00000000E+00  0.00000000E+00
  0.00000000E+00  0.00000000E+00  0.00000000E+00
  0.00000000E+00  0.00000000E+00  0.00000000E+00
  0.00000000E+00  0.00000000E+00  0.00000000E+00
  0.00000000E+00  0.00000000E+00  0.00000000E+00
  0.00000000E+00  0.00000000E+00  0.00000000E+00
  0.00000000E+00  0.00000000E+00  0.00000000E+00
  0.00000000E+00  0.00000000E+00  0.00000000E+00
  0.00000000E+00  0.00000000E+00  0.00000000E+00
  0.00000000E+00  0.00000000E+00  0.00000000E+00
  0.00000000E+00  0.00000000E+00  0.00000000E+00
  0.00000000E+00  0.00000000E+00  0.00000000E+00
  0.00000000E+00  0.00000000E+00  0.00000000E+00
  0.00000000E+00  0.00000000E+00  0.00000000E+00
  0.00000000E+00  0.00000000E+00  0.00000000E+00
  0.00000000E+00  0.00000000E+00  0.00000000E+00
  0.00000000E+00  0.00000000E+00  0.00000000E+00
  0.00000000E+00  0.00000000E+00  0.00000000E+00
  0.00000000E+00  0.00000000E+00  0.00000000E+00
  0.00000000E+00  0.00000000E+00  0.00000000E+00
  0.00000000E+00  0.00000000E+00  0.00000000E+00
  0.00000000E+00  0.00000000E+00  0.00000000E+00
  0.00000000E+00  0.00000000E+00  0.00000000E+00
  0.00000000E+00  0.00000000E+00  0.00000000E+00
  0.00000000E+00  0.00000000E+00  0.00000000E+00
  0.00000000E+00  0.00000000E+00  0.00000000E+00
  0.00000000E+00  0.00000000E+00  0.00000000E+00
  0.00000000E+00  0.00000000E+00  0.00000000E+00
  0.00000000E+00  0.00000000E+00  0.00000000E+00
  0.00000000E+00  0.00000000E+00  0.00000000E+00
  0.00000000E+00  0.00000000E+00  0.00000000E+00
  0.00000000E+00  0.00000000E+00  0.00000000E+00
  0.00000000E+00  0.00000000E+00  0.00000000E+00
  0.00000000E+00  0.00000000E+00  0.00000000E+00
