Te Pd O
 1.0000000000000000
    11.4545060173354365    0.0000000000000000    0.0000000000000007
    -0.0000000000000006   10.0011441711883435    0.0000000000000006
     0.0000000000000000    0.0000000000000000   30.0034325135650306
Te Pd O
16 48 1
Selective dynamics
Cartesian
 -0.0000000000000002  2.5002860427970863 11.2512871925868865   F   F   F
  0.0000000000000000  0.0000000000000000 13.7515732353839741   F   F   F
  4.2845002450739935  2.5002860427970859 13.7515732353839741   F   F   F
  4.2845002450739935  5.0005720855941709 11.2512871925868883   F   F   F
  2.8636265043338591  2.5002860427970863 11.2512871925868865   F   F   F
  2.8636265043338591  0.0000000000000000 13.7515732353839741   F   F   F
  1.4427527635937250  2.5002860427970859 13.7515732353839741   F   F   F
  1.4427527635937250  5.0005720855941709 11.2512871925868883   F   F   F
 -0.0000000000000002  2.5002860427970863 16.2518592781810582   F   F   F
 -0.4893295056172065  0.1447340096347034 19.2038162436299729   T   T   T
  3.9076252860577165  1.4359406151829148 18.6895832583402637   T   T   T
  4.2845002450739935  5.0005720855941709 16.2518592781810618   F   F   F
  2.8636265043338591  2.5002860427970863 16.2518592781810582   F   F   F
  2.0055265803554159 -0.6826198285853025 18.7397565111612323   T   T   T
  1.3224394928486245  2.9677268532441872 18.6137451624533981   T   T   T
  1.4427527635937250  5.0005720855941709 16.2518592781810618   F   F   F
 -0.0000000000000005  7.5008581283912577 11.2512871925868865   F   F   F
 -0.0000000000000003  5.0005720855941718 13.7515732353839741   F   F   F
  4.2845002450739935  7.5008581283912577 13.7515732353839741   F   F   F
  4.2845002450739935 10.0011441711883435 11.2512871925868883   F   F   F
  2.8636265043338587  7.5008581283912577 11.2512871925868865   F   F   F
  2.8636265043338587  5.0005720855941718 13.7515732353839741   F   F   F
  1.4427527635937247  7.5008581283912577 13.7515732353839741   F   F   F
  1.4427527635937247 10.0011441711883435 11.2512871925868883   F   F   F
 -0.0000000000000005  7.5008581283912577 16.2518592781810582   F   F   F
 -0.3856018113147005  4.9996098365617172 19.5505199292245209   T   T   T
  4.3300341091853420  7.6043186080669898 18.6450102206879649   T   T   T
  4.2845002450739935 10.0011441711883435 16.2518592781810618   F   F   F
  2.8636265043338587  7.5008581283912577 16.2518592781810582   F   F   F
  3.6708220140741266  4.7493205135714334 18.8620094837249610   T   T   T
  1.4676113749349122  6.5578275833052544 18.5299174207473527   T   T   T
  1.4427527635937247 10.0011441711883435 16.2518592781810618   F   F   F
  5.7272530086677182  2.5002860427970863 11.2512871925868865   F   F   F
  5.7272530086677182  0.0000000000000000 13.7515732353839741   F   F   F
 10.0117532537417127  2.5002860427970859 13.7515732353839741   F   F   F
 10.0117532537417127  5.0005720855941709 11.2512871925868883   F   F   F
  8.5908795130015783  2.5002860427970863 11.2512871925868865   F   F   F
  8.5908795130015783  0.0000000000000000 13.7515732353839741   F   F   F
  7.1700057722614430  2.5002860427970859 13.7515732353839741   F   F   F
  7.1700057722614430  5.0005720855941709 11.2512871925868883   F   F   F
  5.7272530086677182  2.5002860427970863 16.2518592781810582   F   F   F
  5.8012265381860164 -0.1845464355719741 19.4727443483687068   T   T   T
  9.9541272951693962  2.6267780438151362 18.6786141122290985   T   T   T
 10.0117532537417127  5.0005720855941709 16.2518592781810618   F   F   F
  8.5908795130015783  2.5002860427970863 16.2518592781810582   F   F   F
  8.3094625701777254  0.3024006052701225 18.6796502876866555   T   T   T
  6.9157833137310218  2.8523620207201361 18.6216675452458560   T   T   T
  7.1700057722614430  5.0005720855941709 16.2518592781810618   F   F   F
  5.7272530086677182  7.5008581283912577 11.2512871925868865   F   F   F
  5.7272530086677182  5.0005720855941718 13.7515732353839741   F   F   F
 10.0117532537417127  7.5008581283912577 13.7515732353839741   F   F   F
 10.0117532537417127 10.0011441711883435 11.2512871925868883   F   F   F
  8.5908795130015783  7.5008581283912577 11.2512871925868865   F   F   F
  8.5908795130015783  5.0005720855941718 13.7515732353839741   F   F   F
  7.1700057722614430  7.5008581283912577 13.7515732353839741   F   F   F
  7.1700057722614430 10.0011441711883435 11.2512871925868883   F   F   F
  5.7272530086677182  7.5008581283912577 16.2518592781810582   F   F   F
  6.0946631068411410  5.3454100676270855 19.5704159587774313   T   T   T
 10.1158647798169703  7.6685000992395658 18.6361639885879242   T   T   T
 10.0117532537417127 10.0011441711883435 16.2518592781810618   F   F   F
  8.5908795130015783  7.5008581283912577 16.2518592781810582   F   F   F
  8.6115554366914289  5.1790756571525662 18.6505284001912344   T   T   T
  7.1947357184312706  7.6290764065220742 18.6857594262844771   T   T   T
  7.1700057722614430 10.0011441711883435 16.2518592781810618   F   F   F
  3.0596867590392511  2.9910516889296135 19.6955894910800460   T   T   T
