Cu In Se H O                            
   1.00000000000000     
    11.6458921600000043    0.0000000000000000   -0.0000000000000007
     5.8229460800000021   13.0708099412073455   -1.0059749343232778
     0.0000000000000000    0.0000000000000038   31.3945677355454151
   Cu   In   Se   H    O 
     8    16    32     1     1
Selective dynamics
Direct
  0.1723751391666681  0.1222842791666636  0.3722842791666636   F   F   F
  0.2557084724999967  0.4556176124999993  0.5389509458333350   F   F   F
  0.4640418058333324  0.0389509458333350  0.4556176124999993   F   F   F
  0.3182084724999967  0.3306176124999993  0.4139509458333350   F   F   F
  0.0536825461393349  0.3648822849002755  0.6238634171003596   T   T   T
  0.3954686119764901  0.1656558613188324  0.5829048844951359   T   T   T
  0.1626784766666702  0.3824195241666644  0.4826806741666658   F   F   F
  0.3732954350000028  0.4797017675000035  0.3853984308333338   F   F   F
  0.0359581941666676  0.1869648991666679  0.4370720191666635   F   F   F
  0.2009017841666676  0.2733842591666686  0.3506526591666699   F   F   F
  0.2550619937158345  0.2208145381792903  0.6519364448217928   T   T   T
  0.4566287683333314  0.3130351008333321  0.5520650974999981   F   F   F
  0.1236372380905664  0.0257230113059563  0.6060810471211298   T   T   T
  0.2842351175000033  0.1067175924999972  0.5173193258333342   F   F   F
  0.1723751391666681  0.6222842791666636  0.3722842791666636   F   F   F
  0.2557084724999967  0.9556176124999993  0.5389509458333350   F   F   F
  0.4640418058333324  0.5389509458333350  0.4556176124999993   F   F   F
  0.3182084724999967  0.8306176124999993  0.4139509458333350   F   F   F
  0.0939053611518403  0.8561561698937084  0.6088622441182281   T   T   T
  0.4055440133662245  0.6590831061926465  0.5816993572649594   T   T   T
  0.1626784766666702  0.8824195241666644  0.4826806741666658   F   F   F
  0.3732954350000028  0.9797017675000035  0.3853984308333338   F   F   F
  0.0359581941666676  0.6869648991666679  0.4370720191666635   F   F   F
  0.2009017841666676  0.7733842591666686  0.3506526591666699   F   F   F
  0.2580797657269756  0.7212159119738004  0.6509581786709049   T   T   T
  0.4566287683333314  0.8130351008333321  0.5520650974999981   F   F   F
  0.1221682638597628  0.5158491213120371  0.6029784725952609   T   T   T
  0.2842351175000033  0.6067175924999972  0.5173193258333342   F   F   F
  0.6723751391666681  0.1222842791666636  0.3722842791666636   F   F   F
  0.7557084724999967  0.4556176124999993  0.5389509458333350   F   F   F
  0.9640418058333324  0.0389509458333350  0.4556176124999993   F   F   F
  0.8182084725000038  0.3306176124999993  0.4139509458333350   F   F   F
  0.5941489611289796  0.3565528310077468  0.6090636571427126   T   T   T
  0.9039207846076422  0.1624806803134362  0.5809159434884208   T   T   T
  0.6626784766666702  0.3824195241666644  0.4826806741666658   F   F   F
  0.8732954350000028  0.4797017675000035  0.3853984308333338   F   F   F
  0.5359581941666676  0.1869648991666679  0.4370720191666635   F   F   F
  0.7009017841666676  0.2733842591666686  0.3506526591666699   F   F   F
  0.7536769422552467  0.2151244690446674  0.6497430839177483   T   T   T
  0.9566287683333314  0.3130351008333321  0.5520650974999981   F   F   F
  0.6210812175317457  0.0287286885848062  0.6049060173355869   T   T   T
  0.7842351175000033  0.1067175924999972  0.5173193258333342   F   F   F
  0.6723751391666681  0.6222842791666636  0.3722842791666636   F   F   F
  0.7557084724999967  0.9556176124999993  0.5389509458333350   F   F   F
  0.9640418058333324  0.5389509458333350  0.4556176124999993   F   F   F
  0.8182084725000038  0.8306176124999993  0.4139509458333350   F   F   F
  0.5941845492579603  0.8583784010420459  0.6084186325022998   T   T   T
  0.9056869590334884  0.6584695290999250  0.5822576692100441   T   T   T
  0.6626784766666702  0.8824195241666644  0.4826806741666658   F   F   F
  0.8732954350000028  0.9797017675000035  0.3853984308333338   F   F   F
  0.5359581941666676  0.6869648991666679  0.4370720191666635   F   F   F
  0.7009017841666676  0.7733842591666686  0.3506526591666699   F   F   F
  0.7547699276025739  0.7215922609597669  0.6505481177997936   T   T   T
  0.9566287683333314  0.8130351008333321  0.5520650974999981   F   F   F
  0.6258672817194935  0.5252944625095495  0.6064531116933267   T   T   T
  0.7842351175000033  0.6067175924999972  0.5173193258333342   F   F   F
  0.9466153720500614  0.4062222424980604  0.6982711667803585   T   T   T
  0.9110997832959526  0.4290983372692736  0.6707813551758193   T   T   T
 
  0.00000000E+00  0.00000000E+00  0.00000000E+00
  0.00000000E+00  0.00000000E+00  0.00000000E+00
  0.00000000E+00  0.00000000E+00  0.00000000E+00
  0.00000000E+00  0.00000000E+00  0.00000000E+00
  0.00000000E+00  0.00000000E+00  0.00000000E+00
  0.00000000E+00  0.00000000E+00  0.00000000E+00
  0.00000000E+00  0.00000000E+00  0.00000000E+00
  0.00000000E+00  0.00000000E+00  0.00000000E+00
  0.00000000E+00  0.00000000E+00  0.00000000E+00
  0.00000000E+00  0.00000000E+00  0.00000000E+00
  0.00000000E+00  0.00000000E+00  0.00000000E+00
  0.00000000E+00  0.00000000E+00  0.00000000E+00
  0.00000000E+00  0.00000000E+00  0.00000000E+00
  0.00000000E+00  0.00000000E+00  0.00000000E+00
  0.00000000E+00  0.00000000E+00  0.00000000E+00
  0.00000000E+00  0.00000000E+00  0.00000000E+00
  0.00000000E+00  0.00000000E+00  0.00000000E+00
  0.00000000E+00  0.00000000E+00  0.00000000E+00
  0.00000000E+00  0.00000000E+00  0.00000000E+00
  0.00000000E+00  0.00000000E+00  0.00000000E+00
  0.00000000E+00  0.00000000E+00  0.00000000E+00
  0.00000000E+00  0.00000000E+00  0.00000000E+00
  0.00000000E+00  0.00000000E+00  0.00000000E+00
  0.00000000E+00  0.00000000E+00  0.00000000E+00
  0.00000000E+00  0.00000000E+00  0.00000000E+00
  0.00000000E+00  0.00000000E+00  0.00000000E+00
  0.00000000E+00  0.00000000E+00  0.00000000E+00
  0.00000000E+00  0.00000000E+00  0.00000000E+00
  0.00000000E+00  0.00000000E+00  0.00000000E+00
  0.00000000E+00  0.00000000E+00  0.00000000E+00
  0.00000000E+00  0.00000000E+00  0.00000000E+00
  0.00000000E+00  0.00000000E+00  0.00000000E+00
  0.00000000E+00  0.00000000E+00  0.00000000E+00
  0.00000000E+00  0.00000000E+00  0.00000000E+00
  0.00000000E+00  0.00000000E+00  0.00000000E+00
  0.00000000E+00  0.00000000E+00  0.00000000E+00
  0.00000000E+00  0.00000000E+00  0.00000000E+00
  0.00000000E+00  0.00000000E+00  0.00000000E+00
  0.00000000E+00  0.00000000E+00  0.00000000E+00
  0.00000000E+00  0.00000000E+00  0.00000000E+00
  0.00000000E+00  0.00000000E+00  0.00000000E+00
  0.00000000E+00  0.00000000E+00  0.00000000E+00
  0.00000000E+00  0.00000000E+00  0.00000000E+00
  0.00000000E+00  0.00000000E+00  0.00000000E+00
  0.00000000E+00  0.00000000E+00  0.00000000E+00
  0.00000000E+00  0.00000000E+00  0.00000000E+00
  0.00000000E+00  0.00000000E+00  0.00000000E+00
  0.00000000E+00  0.00000000E+00  0.00000000E+00
  0.00000000E+00  0.00000000E+00  0.00000000E+00
  0.00000000E+00  0.00000000E+00  0.00000000E+00
  0.00000000E+00  0.00000000E+00  0.00000000E+00
  0.00000000E+00  0.00000000E+00  0.00000000E+00
  0.00000000E+00  0.00000000E+00  0.00000000E+00
  0.00000000E+00  0.00000000E+00  0.00000000E+00
  0.00000000E+00  0.00000000E+00  0.00000000E+00
  0.00000000E+00  0.00000000E+00  0.00000000E+00
  0.00000000E+00  0.00000000E+00  0.00000000E+00
  0.00000000E+00  0.00000000E+00  0.00000000E+00
