Cu In Se H O
 1.0000000000000000
    11.6458921600000043   -0.0000000000000000   -0.0000000000000007
     5.8229460800000021   13.0708099412073455   -1.0059749343232778
    -0.0000000000000000    0.0000000000000038   31.3945677355454151
Cu In Se H O
8 16 32 1 1
Selective dynamics
Cartesian
  2.7195170458191615  1.5983545717850445 11.5646890994731599   F   F   F
  5.6309900858191622  5.9552912188541587 16.4617920772896298   F   F   F
  5.6309900858191630  0.5091204100177645 14.2647343219622158   F   F   F
  5.6309900858191622  4.3214399762032381 12.6632179771368705   F   F   F
  2.7498710137344506  4.7693069968449775 19.2188598732978235   T   T   T
  5.5701899560386172  2.1652562789454941 18.1334012354523857   T   T   T
  4.1213442651748355  4.9985329181894507 14.7688466640566407   F   F   F
  7.1406359064634906  6.2700906314537379 11.6168491879144309   F   F   F
  1.5074517782334798  2.4437826626844976 13.5336051088795699   F   F   F
  3.9315823134048431  3.5733536924852718 10.7335709476968333   F   F   F
  4.2562156224272858  2.8862248607969989 20.2451289856858914   T   T   T
  7.1406359064634888  4.0916223079191791 17.0169396328925444   F   F   F
  1.5896496496128012  0.3362205918957111 19.0017757824655611   T   T   T
  3.9315823134048431  1.3948853689507179 16.1336613926749450   F   F   F
  5.6309900858191622  8.1337595423887166 11.0617016323115216   F   F   F
  8.5424631258191628 12.4906961894578323 15.9588046101279915   F   F   F
  8.5424631258191646  7.0445253806214376 13.7617468548005775   F   F   F
  8.5424631258191628 10.8568449468069108 12.1602305099752321   F   F   F
  6.0789629225705948 11.1906545766726531 18.2536953178066312   T   T   T
  8.5607272353953583  8.6147500165046687 17.5991787889122513   T   T   T
  7.0328173051748362 11.5339378887931225 14.2658591968950024   F   F   F
 10.0521089464634912 12.8054956020574107 11.1138617207527926   F   F   F
  4.4189248182334806  8.9791876332881699 13.0306176417179316   F   F   F
  6.8430553534048446 10.1087586630889454 10.2305834805351950   F   F   F
  7.2051704877958453  9.4268761119840505 19.7110255036102480   T   T   T
 10.0521089464634894 10.6270272785228528 16.5139521657309061   F   F   F
  4.4265200451006050  6.7425658230084711 18.4113172150350373   T   T   T
  6.8430553534048446  7.9302903395543911 15.6306739255133067   F   F   F
  8.5424631258191646  1.5983545717850445 11.5646890994731599   F   F   F
 11.4539361658191652  5.9552912188541587 16.4617920772896298   F   F   F
 11.4539361658191652  0.5091204100177645 14.2647343219622158   F   F   F
 11.4539361658191652  4.3214399762032381 12.6632179771368705   F   F   F
  8.9955826379135821  4.6604342881016576 18.7626070286701534   T   T   T
 11.4730802192300203  2.1237540914949613 18.0741534447984868   T   T   T
  9.9442903451748386  4.9985329181894507 14.7688466640566407   F   F   F
 12.9635819864634918  6.2700906314537379 11.6168491879144309   F   F   F
  7.3303978582334821  2.4437826626844976 13.5336051088795699   F   F   F
  9.7545283934048452  3.5733536924852718 10.7335709476968333   F   F   F
 10.0298985767188675  2.8118510485860200 20.1819934351393151   T   T   T
 12.9635819864634918  4.0916223079191791 17.0169396328925444   F   F   F
  7.4003304865545942  0.3755072283520927 18.9618625942687551   T   T   T
  9.7545283934048452  1.3948853689507179 16.1336613926749450   F   F   F
 11.4539361658191652  8.1337595423887166 11.0617016323115216   F   F   F
 14.3654092058191658 12.4906961894578323 15.9588046101279915   F   F   F
 14.3654092058191658  7.0445253806214376 13.7617468548005775   F   F   F
 14.3654092058191658 10.8568449468069108 12.1602305099752321   F   F   F
 11.9181003293008203 11.2197009376580290 18.2375328140485351   T   T   T
 14.3817652188941487  8.6067300669413918 17.6173239942652451   T   T   T
 12.8557633851748392 11.5339378887931225 14.2658591968950006   F   F   F
 15.8750550264634942 12.8054956020574107 11.1138617207527908   F   F   F
 10.2418708982334827  8.9791876332881699 13.0306176417179316   F   F   F
 12.6660014334048476 10.1087586630889454 10.2305834805351950   F   F   F
 12.9917620097846225  9.4317952980511777 19.6977732221701025   T   T   T
 15.8750550264634924 10.6270272785228528 16.5139521657309061   F   F   F
 10.3475442006932461  6.8660240826310375 18.5109002310650474   T   T   T
 12.6660014334048476  7.9302903395543911 15.6306739255133067   F   F   F
  1.7436985944561503  5.3096537255832006 21.5132720495466927   T   T   T
  1.4632941442006695  5.6086628125347682 20.6272285191554872   T   T   T
